-total 525378
aagsc 4
aalbe 1
aaren 4
aarig 2
aarke 1
aarlo 1
aaron 2
aaten 31
aates 37
aatli 16
aatsa 4
aatsb 4
aatse 4
aatsf 4
aatsg 7
aatsh 1
aatsi 1
aatsk 19
aatsm 68
aatso 5
aatsp 1
aatsr 30
aatss 3
aatst 3
aatsu 4
aatsv 4
aatsw 2
abaee 2
abaen 3
abala 1
abale 2
abant 1
abarc 1
abare 1
abari 1
abata 17
abbat 2
abber 15
abbez 1
abbra 1
abbre 2
abbru 2
abdik 1
abdiz 1
abdra 1
abdru 1
abeir 12
abelh 3
abeli 1
abell 10
abeln 3
abelz 1
abemu 1
abena 2
abend 14
abene 7
abenk 1
abenr 1
abent 13
abere 1
aberf 1
aberg 5
aberi 7
aberk 5
aberm 30
abern 28
abers 11
abewe 1
abfah 1
abfal 9
abfan 1
abfas 1
abfin 2
abfol 2
abfue 2
abfuh 1
abgab 17
abgan 8
abgar 9
abgeb 7
abged 2
abgef 7
abgeg 10
abgeh 15
abgei 1
abgek 4
abgel 15
abgen 11
abgeo 2
abger 7
abges 60
abget 7
abgew 10
abgez 2
abgin 6
abgla 1
abgoe 1
abgot 1
abgru 5
abgur 1
abhae 63
abhaf 1
abhal 2
abhan 17
abhel 1
abhie 1
abhil 2
abhin 5
abhol 1
abici 1
abien 46
abili 2
abine 4
abini 60
abinu 11
abion 1
abiri 1
abisc 11
abitu 1
abius 2
abkle 1
abkom 2
ablae 3
ablas 1
ablau 9
ablea 1
ableg 5
ableh 6
ablei 2
ablen 2
abler 1
ables 1
ableu 1
ablie 3
ablis 1
abloe 2
ablon 1
ablus 2
abmar 5
abmon 1
abnah 2
abneh 1
abnei 6
abnor 1
abons 1
abord 1
abpal 1
abpra 1
abrec 1
abred 8
abrei 10
abrer 1
abrie 1
abrik 8
abrio 11
abris 1
abriz 1
abrun 1
abruz 1
absag 1
absat 2
absch 47
abseh 7
absel 1
absen 2
abset 7
absic 84
absof 1
absol 9
absor 2
abspe 1
abspr 1
absta 5
abste 5
absti 13
abstr 8
abstu 1
absue 3
absur 2
abtat 1
abtei 41
abten 5
abter 3
abtes 1
abtra 2
abtre 7
abtru 5
abuli 5
abulo 1
abung 8
aburr 6
aburt 1
abver 1
abvot 1
abwae 2
abwan 1
abwar 4
abweh 7
abwei 5
abwen 7
abwer 2
abwes 28
abwic 2
abwue 1
abylo 5
abyri 1
abzei 2
abzie 5
abzog 2
abzub 3
abzud 2
abzue 1
abzuf 6
abzug 17
abzuh 7
abzul 12
abzun 5
abzup 1
abzur 7
abzus 37
abzut 1
abzuw 13
abzuz 1
abzwi 1
accae 1
accha 5
acche 6
acchi 15
acchu 32
accia 3
acciu 1
accos 2
accus 5
acell 1
acent 3
acere 1
achac 1
achae 3
achah 6
achai 3
achar 4
achau 2
achba 53
achbe 2
achbl 2
achde 81
achdr 16
achei 6
achel 2
achem 11
achen 250
acher 19
aches 3
achfa 2
achfe 3
achfo 40
achga 2
achge 29
achgi 11
achha 3
achhe 23
achhu 2
achie 6
achig 2
achil 5
achin 4
achio 36
achka 2
achkl 1
achko 7
achla 18
achle 2
achli 13
achma 1
achme 3
achmo 1
achmu 5
achos 4
achre 4
achri 27
achru 1
achsa 2
achsc 5
achse 32
achsi 13
achso 1
achsp 1
achst 12
achtb 12
achtd 1
achte 383
achtf 41
achtg 6
achth 88
achtj 5
achtl 14
achtm 2
achto 3
achtq 1
achtr 14
achts 7
achtt 3
achtu 28
achtv 11
achtw 2
achtz 13
achun 10
achve 4
achvo 2
achwa 13
achwe 11
achwi 7
achwu 2
achzu 22
acies 1
acili 1
acina 3
acitu 3
ackel 5
acken 6
acker 46
ackga 1
ackig 1
acklo 4
acksd 1
ackst 1
ackte 2
ackvo 2
ackwe 2
acqui 1
actus 1
aculu 2
acuvi 3
acuvs 1
adala 4
adalq 1
adana 1
adane 11
adani 7
adara 2
adasa 1
adate 99
adati 17
adats 11
adduz 3
adega 1
adehe 1
adelh 1
adeln 3
adelp 1
adels 15
adelt 7
ademi 2
ademo 3
adems 1
adend 1
adene 5
adeni 1
adenz 6
adept 1
aderh 1
adern 3
aders 3
adert 1
adesa 1
adest 1
adesw 1
adete 3
adewe 2
adezi 1
adezu 36
adfin 1
adhit 4
adiab 4
adian 1
adiat 2
adien 5
adier 1
adies 1
adige 1
adigt 2
adigu 6
adika 2
adita 1
aditi 15
adium 3
adjik 2
adjut 23
adler 9
adlig 15
adlos 2
admag 2
admin 9
admir 9
adnek 1
adnez 1
adoch 4
adoki 31
adoli 2
adoni 1
adonn 1
adopt 5
adrac 2
adrat 5
adria 15
adrig 1
adron 1
adrum 5
adsch 3
adtan 1
adtar 1
adtbe 6
adtbr 1
adtbu 2
adtch 1
adted 6
adtge 10
adtgr 1
adtha 1
adtku 1
adtle 1
adtma 2
adtne 1
adtpo 2
adtpr 5
adtre 7
adtri 3
adtsk 1
adtte 1
adtve 8
adtvi 1
aduat 13
aduie 1
adung 3
adurc 60
advok 26
aebel 10
aeben 10
aeber 6
aebli 1
aeche 49
aechl 102
aechs 184
aecht 216
aecia 1
aecin 2
aeckc 1
aecke 7
aecki 11
aecks 2
aecoi 1
aecus 3
aedag 1
aedch 12
aedel 2
aeden 9
aeder 6
aedie 1
aedig 4
aedil 17
aedit 2
aedli 7
aedoy 6
aedtc 2
aedte 133
aedti 101
aedue 56
aeeng 1
aeenl 1
aeenr 1
aeerf 1
aeerh 1
aeerk 1
aeerl 1
aeern 8
aeerr 1
aeers 2
aeerz 1
aefek 4
aefel 2
aefen 17
aefer 1
aefig 1
aefli 1
aefte 56
aefti 45
aeftl 2
aefts 16
aegae 5
aegen 11
aeger 17
aegid 1
aegig 7
aegim 1
aegin 1
aegli 80
aegna 3
aegni 1
aegun 8
aegyp 133
aehen 7
aeher 32
aehig 103
aehlb 1
aehle 33
aehli 35
aehlt 95
aehlu 17
aehmb 1
aehme 3
aehmt 4
aehne 8
aehnl 91
aehnt 27
aehnu 7
aehrd 8
aehre 201
aehri 48
aehrl 72
aehrs 1
aehrt 57
aehru 3
aehte 11
aehti 1
aeisc 20
aeism 1
aekel 1
aeker 2
aelde 14
aeler 18
aelft 34
aelig 1
aelis 1
aeliu 7
aelle 55
aelli 37
aellt 20
aelsc 5
aelte 83
aelti 32
aeltn 171
aelze 1
aelzt 2
aelzu 10
aemen 3
aemie 2
aemil 8
aemli 6
aemme 43
aemon 4
aempf 55
aemte 35
aemtl 66
aende 218
aendi 270
aendl 32
aendn 18
aendu 1
aenen 18
aeneo 1
aenes 2
aenft 3
aenge 182
aengi 85
aengl 58
aengn 26
aengs 69
aengt 85
aengu 3
aenig 16
aenit 5
aenke 12
aenki 4
aenkl 1
aenkt 88
aenku 16
aenne 151
aenni 20
aennl 5
aenom 1
aente 1
aenze 55
aenzl 29
aenzt 7
aenzu 6
aeoti 3
aeppc 1
aeppi 1
aepta 1
aeque 1
aequi 1
aerar 7
aeras 1
aerau 2
aerbe 2
aerbt 5
aerbu 1
aerch 7
aerdi 7
aeren 52
aerer 6
aeres 3
aerfe 20
aerfs 3
aerft 8
aerge 37
aergr 1
aergs 5
aerie 7
aeris 131
aerit 2
aerke 19
aerko 4
aerks 3
aerkt 20
aerku 12
aerli 13
aerma 5
aerme 10
aerml 4
aermo 7
aerms 2
aermt 3
aernt 1
aeron 1
aerpe 1
aerre 1
aerri 1
aersc 14
aersp 1
aerst 3
aertc 1
aerte 51
aerti 33
aertl 2
aerts 41
aerty 4
aerun 30
aerve 1
aerwe 4
aerze 1
aerzt 3
aesar 1335
aesch 5
aesen 8
aesep 1
aeser 2
aeson 1
aesop 2
aesse 57
aessh 3
aessi 279
aessl 7
aesst 34
aeste 18
aesth 9
aesti 11
aesto 30
aestr 1
aestu 7
aesul 7
aetem 1
aeten 46
aeter 131
aetet 2
aetig 81
aetis 1
aetja 1
aetli 6
aetol 7
aetor 81
aetre 3
aetsp 2
aetsv 1
aette 157
aetti 1
aetul 4
aetur 11
aetus 2
aetzb 3
aetze 76
aetzi 7
aetzl 4
aetzt 8
aeube 73
aeubi 26
aeubt 2
aeubu 1
aeuch 8
aeude 18
aeuel 3
aeuer 1
aeufe 29
aeufi 96
aeufl 3
aeuft 12
aeufu 1
aeuge 2
aeule 7
aeuli 1
aeume 25
aeumi 6
aeuml 1
aeumt 46
aeumu 7
aeunu 1
aeupt 23
aeuri 1
aeusc 18
aeuse 37
aeusl 10
aeuss 83
aeust 1
aeute 2
aeviu 2
aevol 1
aezis 1
afaye 1
afbar 3
afela 1
afelb 1
afeld 1
afelg 3
afeln 4
afelr 2
afelz 2
afend 3
afenm 1
afenp 3
afens 7
afenz 1
affek 2
affel 1
affen 217
affer 2
affhe 4
affie 2
affil 2
affin 1
affne 48
affnu 4
affre 1
affte 15
affun 4
afgel 1
afgem 1
afger 1
afges 1
aflos 4
aflus 2
afond 1
afott 1
afpel 1
afpre 1
afran 16
afrec 1
afria 1
afric 1
afrik 90
aftan 1
aftem 1
aften 245
after 28
aftes 20
aftet 18
aftig 12
aftli 64
aftme 1
aftsb 5
aftsg 2
aftsp 2
aftsq 1
aftsv 1
aftsw 1
aftun 3
afuer 62
afung 4
afzim 1
afzuc 1
agabe 1
agada 3
agame 1
agand 1
agaue 1
agazi 6
agbar 4
agdad 1
agdpa 1
agebi 1
agedi 7
agege 116
ageka 1
agelo 1
agelt 1
agema 7
agenb 4
agend 21
agene 57
ageng 2
ageni 1
agenk 2
agens 2
agent 6
agenw 2
agenz 1
agere 11
agerh 1
agerj 1
agerm 1
agern 22
agero 1
agers 12
agert 44
ageru 47
agerw 4
agerz 1
agesl 1
agesm 2
ageso 3
agesp 1
agess 1
agesv 1
ageto 3
agewe 4
agfae 2
agfer 9
aggeb 1
aghaf 3
agide 8
agier 3
agiko 1
agion 1
agisc 7
agist 9
agita 16
agius 2
aglic 2
aglos 2
agmat 1
agmen 1
agnat 2
agnes 1
agnie 1
agnis 2
agnop 1
agnos 1
agoed 5
agoge 9
agogi 6
agoni 11
agora 2
agore 4
agori 5
agoss 1
agrad 2
agrae 1
agrar 2
agsbr 2
agsch 4
agsge 2
agsma 4
agsra 2
agsre 2
agsso 1
agsza 1
agten 34
agter 3
agtes 1
agung 6
agunt 2
agurr 4
agusa 1
agwei 1
agwoe 2
agyri 1
ahara 2
ahbar 1
ahege 2
aheim 11
ahend 1
aheno 4
ahest 2
ahezu 2
ahgef 2
ahier 2
ahing 5
ahint 1
ahkam 2
ahlag 1
ahlbe 2
ahlbr 2
ahlen 61
ahler 2
ahlfa 1
ahlge 1
ahlha 1
ahlhe 1
ahlin 6
ahlka 1
ahlko 1
ahlle 3
ahllo 10
ahlor 2
ahlpl 1
ahlre 64
ahlsc 2
ahlsi 1
ahlsp 1
ahlta 1
ahlte 12
ahlum 6
ahlun 19
ahlve 5
ahlvo 1
ahlze 6
ahmea 1
ahmef 1
ahmeg 5
ahmek 1
ahmem 4
ahmen 54
ahmeq 5
ahmer 2
ahmes 4
ahmli 1
ahmsw 4
ahmun 1
ahnde 8
ahnen 17
ahnhe 1
ahnsi 5
ahnte 5
ahnun 10
ahnwi 1
ahorr 1
ahors 1
ahrbu 1
ahrel 2
ahren 145
ahrer 4
ahres 78
ahrha 5
ahrhe 16
ahrhu 57
ahrko 1
ahrli 7
ahrlo 1
ahrne 2
ahrni 1
ahrsa 5
ahrsc 96
ahrsg 1
ahrsp 2
ahrst 1
ahrta 19
ahrte 25
ahrun 22
ahrwa 1
ahrwe 1
ahrza 1
ahrze 10
ahrzu 2
ahura 1
ahwaf 2
aicus 1
aieta 1
aigen 3
aiker 1
ailfr 2
aille 1
ailli 3
aillo 2
ailma 1
ainsc 1
ainte 1
ainto 1
aisch 8
aisen 1
aiser 15
aisme 1
aisne 3
aison 3
aisti 1
aiten 3
aitis 4
aiven 1
aiver 1
aivit 3
ajomu 1
ajori 51
akade 2
akaie 3
akant 1
akass 1
akate 1
akche 1
akchi 1
akeda 2
akedo 49
akeia 1
akelm 2
akeln 2
akelp 1
akelw 1
akeni 1
akerl 1
akern 4
akesi 1
akesp 1
akide 3
akien 5
akier 3
akili 1
akini 1
akisc 18
akkab 3
akkah 2
akkor 2
akkus 1
aklei 16
akleo 1
akles 1
aklia 1
akmon 5
akons 1
akoro 5
akral 1
akrok 2
aktab 1
aktat 5
akten 8
akter 56
aktik 14
aktio 39
aktis 50
aktiv 4
aktor 1
aktri 2
akzen 2
akzep 5
akzid 1
alabg 1
alabr 1
alaer 1
alaes 10
alagu 4
alaho 1
alais 3
alakt 2
alama 1
alami 2
alamt 2
alane 2
alank 3
alanx 2
alarm 1
alasa 1
alast 4
alata 1
alate 1
alati 11
alato 1
alaur 3
alavi 2
alazo 1
alban 11
albar 1
albba 1
albde 1
albek 1
albel 1
albem 3
alben 12
alber 10
albes 13
albew 1
albfe 2
albfr 1
albgr 2
albhe 5
albin 17
albio 2
albkr 1
albku 1
albof 1
albro 3
albus 1
albwe 2
albwi 2
albzi 1
alcha 2
alche 9
alchr 1
aldae 3
aldie 1
aldig 1
aldis 1
aldmo 4
aldun 1
aldve 2
alear 1
aleas 1
aleer 9
aleia 1
alekt 7
alenc 3
alend 21
aleng 1
alent 61
alenu 2
alere 4
aleri 9
alern 9
alesi 15
aless 1
aleta 1
alete 1
alexa 131
alfae 1
alfar 1
alfen 5
alfiu 1
alfre 1
alfri 1
algef 6
algel 1
algem 2
alger 6
alges 11
algew 3
algie 1
algla 1
alher 1
alhiz 1
alhof 1
aliae 1
aliak 5
aliar 1
alica 4
alici 1
alida 1
alide 3
alidi 1
alien 306
alier 2
alife 1
alifi 2
alige 61
alika 1
alike 19
alino 2
alins 1
aliot 18
alisa 5
alisc 279
alise 1
alisi 30
alism 3
aliss 2
alist 25
alita 83
aliti 63
alius 1
aljas 1
aljus 1
alkal 1
alkan 5
alken 3
alker 1
alkis 3
alkla 1
alkma 1
alkol 1
alkom 3
alkra 1
alkri 4
alkul 3
alkur 2
allab 1
allad 6
allae 2
allan 7
allat 1
alleb 1
alled 2
allei 342
allel 5
allem 137
allen 313
aller 163
alles 87
allet 1
allfa 1
allge 106
allia 13
allic 1
allie 204
allii 2
allim 1
allir 1
allis 58
allit 2
allja 1
allma 30
allob 18
allos 1
allse 1
allsh 1
allsp 1
allta 5
allte 5
allun 5
allus 11
allwe 1
allze 3
allzu 19
almac 1
alman 4
almas 3
almat 9
almen 1
almer 1
almos 1
almox 1
almue 1
aloes 1
aloge 4
alogi 7
alogs 2
alome 4
alomo 1
alona 1
aloni 7
alonr 1
alons 1
alopo 1
alopp 2
alorg 1
alpen 36
alpfa 1
alpha 1
alphi 2
alpin 42
alpla 1
alpoe 1
alpol 1
alpra 1
alpri 1
alpro 5
alpur 1
alqui 1
alrec 8
alred 1
alref 1
alreg 1
alroe 2
alsac 4
alsae 2
alsat 2
alsba 2
alsch 20
alsda 3
alsge 3
alsin 2
alska 1
alsko 1
alsta 16
alste 8
alstu 1
alsum 1
altaf 1
altar 2
altba 4
altbl 3
altem 5
alten 425
alter 269
altes 3
altet 36
altfr 2
altge 1
altha 1
althe 4
altig 74
altis 1
altlo 4
altma 3
altmo 3
altna 2
altop 1
altph 1
altpu 2
altro 11
altsa 13
altsc 1
altsp 1
altta 3
altun 86
altva 1
altwe 1
altyr 1
alueb 1
alung 1
alusi 2
alvad 1
alver 11
alvin 18
alvis 1
alvus 6
alwes 4
alyer 1
alysi 4
alysm 1
alzah 1
alzen 1
alzfi 1
alzig 1
alzma 1
alzug 1
alzwa 1
amadi 1
amaei 2
amaet 1
amalf 1
amali 22
amals 56
amann 1
amano 4
amari 2
amaro 1
amase 2
amask 8
amast 1
amati 12
amato 2
amays 1
amazd 1
ambac 1
ambae 2
ambak 3
amben 2
ambia 3
ambio 6
amble 1
ambli 1
ambos 1
ambra 3
ambre 7
ambri 2
ambro 1
ambyk 1
ameia 3
amele 3
amemn 1
amenl 2
amens 3
ament 212
amera 8
amerc 1
amere 1
ameri 6
amete 3
amhaf 36
amida 1
amien 21
amier 5
amige 6
amili 30
amini 1
amisc 6
amise 1
amiso 10
amkei 43
ammat 8
ammba 1
ammel 46
ammen 257
ammer 16
ammes 13
ammet 2
ammfe 1
ammfr 1
ammfu 1
ammge 2
ammle 1
ammlu 32
ammte 7
ammun 3
ammve 2
amnes 5
amnit 3
amokl 1
amora 1
amorp 1
amosa 2
amoth 2
ampag 6
ampan 17
ampfb 2
ampfe 41
ampff 2
ampfl 1
ampfp 7
ampfs 1
ampfw 2
ampfz 1
amphi 1
amphl 3
amphy 8
ampsa 3
ampsi 6
amsat 1
amste 2
amtan 2
amtbe 2
amtei 1
amten 80
amter 6
amtes 20
amtga 1
amthe 7
amtir 1
amtla 1
amtli 4
amtlo 2
amtre 3
amtsa 1
amtsb 4
amtsg 15
amtsh 1
amtsj 3
amtst 3
amtsv 1
amtsw 2
amtun 1
amtve 1
amtza 1
amtzu 1
amues 1
amulo 4
amund 1
amurr 4
anach 13
anaea 1
anael 1
anago 5
anail 1
anait 3
anakl 1
anala 1
anali 1
analo 5
anals 3
anapa 2
anarc 33
anare 4
anass 3
anati 4
anaus 1
anaze 1
anban 1
anbef 1
anber 3
anbet 1
anbie 3
anbil 1
anbra 1
anbri 1
anbru 2
ancha 1
anche 58
ancho 2
ancie 2
ancon 2
ancus 3
andac 1
andal 9
andan 22
andar 1
andau 2
andba 4
andbi 3
andbu 2
andeb 1
anded 1
andei 9
andel 191
andem 1
anden 278
ander 537
andes 102
andet 8
andeu 5
andfa 1
andfl 5
andfr 3
andge 11
andgr 7
andgu 9
andha 19
andhe 4
andhi 2
andid 25
andie 19
andis 2
andit 5
andka 1
andkr 1
andla 5
andle 2
andlo 3
andlu 64
andma 6
andop 1
andor 1
andos 19
andot 1
andow 1
andpl 3
andpu 4
andra 3
andre 36
andri 50
andro 13
andsc 176
andse 5
andsf 1
andsg 1
andsk 2
andsl 15
andsm 5
andsp 3
andss 1
andst 44
andta 4
andte 129
andth 10
andtr 1
andts 11
andub 1
andue 4
andun 11
andve 1
andvo 5
andwa 3
andwe 28
andwi 6
andwu 3
andzu 2
anebe 19
aneen 1
aneia 1
aneig 1
anein 2
anekd 8
aneng 1
anenh 2
anenk 1
anenl 2
anenp 2
anenr 1
anens 4
anenz 3
anera 1
anerb 4
anere 1
anerf 1
anerk 55
anern 45
anerr 1
aners 1
anert 1
aneso 1
aness 1
anfae 21
anfan 56
anfec 1
anfer 2
anfin 12
anfor 4
anfri 1
anfue 8
angab 20
angae 2
angar 1
angba 8
angeb 22
anged 3
angee 1
angef 21
angeg 25
angeh 24
angek 22
angel 136
angem 28
angen 325
angeo 11
angep 2
anger 15
anges 112
anget 6
angew 34
angez 8
angfl 1
angfo 1
angge 2
angha 3
angie 2
angin 6
angio 1
angja 4
angkl 1
anglo 1
angre 16
angri 98
angsa 24
angsg 1
angsk 1
angsm 1
angsp 2
angss 6
angst 13
angsw 1
angsz 4
angte 50
angue 1
angun 3
angwe 7
angwi 1
anhae 43
anhaf 4
anhal 3
anhan 12
anheb 1
anhei 8
anher 1
anhin 2
anhoe 10
anial 7
aniam 1
anias 1
anich 3
anici 1
anicu 1
anied 5
anien 161
anier 21
anife 3
anige 1
anike 1
aniko 1
anili 18
aninc 1
anini 1
anion 1
anipu 1
anisa 34
anisc 406
anisi 38
anism 13
anist 1
anita 9
anius 20
ankae 6
ankam 13
ankap 1
ankau 1
ankba 6
anken 85
anker 5
ankes 1
ankfe 3
ankhe 8
ankie 13
ankla 23
anknu 6
ankom 4
ankre 2
ankro 13
ankte 21
ankti 2
ankue 4
ankun 10
anlae 1
anlag 8
anlan 14
anlas 48
anlau 5
anleg 5
anleh 3
anlei 3
anlie 2
anliu 10
anlos 1
anmae 3
anmar 7
anmas 1
anmer 1
anmut 17
annae 10
annah 17
annal 5
anneh 4
annei 2
annen 38
anner 6
annes 32
annfl 1
annib 24
annic 1
annie 18
annig 21
annim 4
annis 11
anniu 8
annkr 5
annme 2
annon 5
annos 1
annsc 58
annsg 1
annss 2
annst 1
annsz 3
annte 189
anntg 2
anntl 2
anntm 1
anntw 1
annul 7
annun 21
annuu 1
anoes 1
anoev 7
anoke 21
anoni 2
anope 1
anord 20
anoru 2
anost 1
anpra 1
anrec 3
anred 1
anreg 4
anrie 2
anrue 10
ansae 22
ansah 2
ansak 5
ansal 22
ansam 1
ansan 2
ansat 4
ansch 66
ansee 3
anseh 93
anset 2
ansic 7
ansie 28
ansig 2
ansin 4
ansit 2
anska 1
ansla 1
anspa 19
anspe 1
anspi 4
anspo 18
anspr 46
ansta 76
anste 5
ansti 3
ansto 4
anstr 18
ansuc 1
ansze 1
antab 1
antag 6
antas 3
antei 4
antel 5
anten 86
anter 41
antes 5
antez 1
anthe 1
antia 4
antic 3
antid 2
antie 6
antig 1
antik 9
antil 2
antim 5
antin 4
antio 32
antip 10
antiq 12
antis 10
antit 2
antiu 1
antli 2
anton 77
antor 1
antos 4
antra 80
antre 3
antri 11
antum 1
antwo 31
anuar 28
anubi 1
anuti 1
anver 15
anwac 3
anwae 2
anwal 3
anwan 2
anwar 1
anwei 11
anwen 17
anwer 2
anwes 6
anwie 2
anwoh 7
anyme 1
anzah 37
anzei 7
anzen 142
anzer 6
anzes 7
anzie 25
anzig 40
anzio 2
anzip 7
anzkn 4
anzku 1
anzli 1
anzma 1
anzme 1
anzno 4
anzoe 3
anzof 1
anzog 2
anzpu 1
anzst 1
anzte 13
anztr 1
anzub 3
anzud 1
anzue 14
anzuf 9
anzug 19
anzuh 5
anzuk 5
anzul 2
anzum 1
anzun 19
anzuo 3
anzur 3
anzus 14
anzut 2
anzuv 5
anzuw 2
anzuz 6
anzve 2
anzvo 1
anzwe 3
anzwi 2
aoneu 1
aonie 2
aotis 1
apaeo 4
apaes 1
apame 3
apana 1
apapp 1
apass 1
apath 1
apaze 9
apazi 5
apden 1
apell 3
apena 1
apenn 7
apezu 2
apfel 1
apfen 1
apfer 74
aphen 3
aphie 10
aphis 4
aphla 5
aphro 2
aphth 1
apida 3
apier 17
apisc 1
apism 1
apita 45
apite 13
apito 13
apitu 14
apoes 1
apole 15
apoli 6
apoll 16
apolo 2
apont 1
apost 3
appad 31
appar 3
appel 5
appen 5
apper 2
appes 2
appha 1
apphe 2
appia 3
appis 5
appiu 6
appor 2
appsc 2
appte 1
april 14
apsos 3
apstt 1
apsus 14
apuan 3
apuli 13
apytn 1
aquae 2
aquil 3
aquin 1
aquit 6
araba 1
arabe 16
arabi 13
arabl 2
arack 1
arade 3
aradi 2
aragi 1
arago 1
aragu 1
arakt 55
arall 5
araly 4
arama 2
aramu 1
arang 2
arant 2
arapa 1
arapi 1
arara 1
arasi 4
arasu 2
arate 1
arath 3
arato 2
aratu 1
arauf 119
araus 20
arawa 4
araxe 2
arbar 42
arbei 83
arbek 1
arbel 1
arben 14
arbes 1
arbie 3
arbig 1
arbit 3
arbod 1
arbon 12
arbos 1
arbot 15
arbra 1
arbri 1
arbus 4
arcel 19
archa 3
arche 45
archi 244
archo 3
archs 1
arcie 1
arciu 6
arcus 137
ardan 6
ardas 1
ardea 1
ardec 1
ardei 1
arden 3
ardet 1
ardin 20
ardis 2
ardon 1
ardsp 1
ardst 1
arein 1
areio 3
areko 2
arela 2
arell 1
aremo 4
arems 1
arena 2
arend 1
arenf 6
areng 1
arenk 1
arenm 1
arens 7
arent 6
arenw 5
areop 1
arere 4
arerw 2
areta 9
areth 2
arfem 1
arfen 22
arfes 1
arfri 1
arfsi 1
arfue 3
argan 1
argau 2
argeb 2
argel 7
argen 7
arger 2
arges 9
arget 3
argon 2
argum 1
argwo 9
arhei 7
ariad 1
arian 43
arias 1
ariat 19
arici 1
aricu 6
arien 4
arier 10
arige 2
arika 3
ariki 2
arimi 2
arine 2
arini 7
arins 1
ariob 3
arios 1
ariov 31
arisa 12
arisc 133
arise 3
arisi 4
arism 14
arist 163
arita 6
arith 2
arius 42
ariva 1
arizi 1
arkam 1
arkan 2
arkas 2
arkei 33
arkel 1
arken 28
arker 3
arkes 2
arkom 3
arkon 3
arkte 19
arktp 3
arkun 1
arlam 2
arlan 1
arleg 2
arleh 6
arlek 2
arles 1
arloc 1
arlsr 1
armac 1
armad 1
armat 1
armaz 1
armee 241
armel 2
armen 141
armes 2
armhe 2
armie 3
armon 7
armor 9
armos 1
armoz 1
armse 2
armte 2
armue 5
armun 2
armut 3
arnak 14
arnas 2
arnen 3
arner 3
arnis 2
arnun 4
arnus 2
arnut 11
arobr 1
arock 1
arodi 4
aroed 1
arokk 1
arole 2
aroli 2
aroni 1
aronn 8
aropa 1
arotz 1
arpar 12
arper 1
arpin 3
arpok 1
arpos 1
arpra 2
arpro 4
arqua 1
arrac 4
arran 1
arrar 1
arras 2
arrec 1
arrei 1
arren 25
arret 4
arrha 15
arric 1
arriu 2
arrko 2
arrli 8
arron 6
arros 24
arrsi 1
arrte 17
arsak 3
arsal 42
arsam 8
arsan 1
arsch 110
arsei 1
arsen 3
arsfe 6
arsin 3
arsis 3
arsos 1
arsta 4
arste 25
arsum 1
arsya 1
artac 19
artat 1
artav 5
artax 9
artei 351
artem 5
arten 69
arter 2
artes 1
artet 44
artha 16
arthe 51
arthi 44
arthu 1
artie 45
artig 70
artik 7
artil 1
artis 1
artit 1
artna 11
artoi 1
artok 5
artre 3
artri 1
artsc 1
artun 5
arude 1
arueb 28
arunc 1
arung 5
arunt 24
arusf 1
arusk 2
aruti 1
arven 1
arver 35
arvoe 1
arwah 3
arzah 1
arzan 5
arzel 3
arzen 14
arzne 1
arzub 3
arzul 2
arzus 5
arzut 1
arzwa 1
asall 2
asard 1
asche 45
aschh 5
aschi 26
aschm 1
ascht 4
aschu 1
aschw 1
ascog 1
ascon 4
ascul 1
asdes 5
asebe 1
aseia 2
asein 7
aselb 78
aselh 1
aseli 1
asell 2
asend 3
asenh 2
aseno 1
aserb 1
asere 1
asern 1
asewe 1
asfue 1
asger 1
asiae 1
asiat 73
asich 1
asidi 4
asien 91
asier 3
asige 1
asile 1
asilu 1
asina 1
asini 2
asins 1
asinu 1
asion 16
asire 1
asisc 5
asise 1
asism 1
asite 1
asiti 3
asjen 2
askal 2
asken 2
askie 1
askis 1
askle 1
askos 8
askup 1
asmen 2
asmon 5
asmus 3
asoka 1
aspar 1
aspir 1
aspis 6
assag 2
assal 40
assan 1
assar 3
assat 8
assbu 1
assel 64
assen 512
asser 51
asses 2
assge 4
assha 1
assho 1
assie 23
assig 1
assik 6
assim 3
assin 3
assis 14
assiu 20
assiv 20
assiz 12
assli 2
asslo 3
assma 2
assos 2
assoz 5
assre 43
assst 11
asste 40
assun 219
assus 126
assyr 2
astab 1
astan 2
astar 4
asteh 1
astei 2
astel 1
asten 28
aster 9
astes 1
astet 16
asteu 1
asthe 4
astie 7
astig 2
astik 1
astil 2
astir 1
astis 8
astiz 1
astle 1
astlo 4
astma 1
astop 1
astor 3
astre 1
astri 2
astro 40
astti 4
asttr 1
astul 1
astun 2
astus 1
asunt 1
asziv 1
ataee 15
ataei 2
atail 1
atali 1
atana 1
atant 2
atarm 1
ataru 1
atast 30
atayu 1
atbau 1
atbes 1
atdik 1
ateau 2
atech 2
atege 1
ategi 10
atego 3
ateig 2
atein 74
ateiu 1
atell 4
atemz 4
atena 2
atenb 5
atenc 3
atend 3
atene 4
atenf 4
ateng 2
atenh 1
ateni 1
atenj 1
atenk 13
atenl 4
atenm 1
atenp 4
atenr 3
atens 7
atent 2
atenv 3
atenw 5
aterd 1
atere 1
aterf 1
aterh 1
ateri 44
aterk 1
aterl 22
aterm 1
atern 3
aterp 1
aterr 1
aters 20
atesk 3
atess 4
atest 1
atgeb 2
atges 2
atgre 9
athae 2
athau 13
athem 5
athen 14
athet 2
athie 9
athis 3
athle 2
athon 1
athos 1
athru 1
athus 2
athyr 2
atica 4
atien 5
atier 6
atifi 4
atike 6
atili 86
atine 4
atini 60
atint 1
ation 605
atire 16
atisc 253
atisi 3
atism 2
atist 3
atium 9
atius 6
ative 53
ativf 1
ativi 1
ativv 2
atjou 1
atkor 1
atkra 2
atkre 1
atlae 1
atlan 11
atlas 1
atleb 2
atlic 25
atlin 1
atlos 11
atmae 1
atman 3
atmei 5
atmet 1
atmig 1
atmue 1
atoli 1
atome 2
atone 1
atoni 18
atons 3
atore 55
atori 31
atorn 3
ators 10
atort 1
atost 1
atpas 2
atpro 1
atrae 1
atral 1
atrap 9
atreb 7
atrec 4
atrib 1
atrik 1
atrio 35
atriz 9
atrok 1
atron 6
atrop 1
atros 6
atrou 2
atrue 1
atsac 19
atsad 1
atsae 49
atsam 3
atsan 2
atsba 1
atsbe 17
atsbu 1
atsch 14
atsei 4
atsfa 1
atsfi 3
atsfr 1
atsge 6
atsgl 1
atsgu 1
atsha 1
atshe 7
atsin 2
atska 17
atski 1
atsko 2
atsku 1
atslu 1
atsma 80
atsme 1
atsmi 6
atsob 1
atsor 4
atspa 5
atsph 1
atspr 1
atsra 2
atsre 32
atssc 4
atssi 6
atsta 1
atsth 3
atsum 4
atsve 6
atswe 2
attal 5
attel 2
attem 1
atten 349
atter 5
attes 1
attet 45
attfa 6
attfi 4
attge 9
attha 172
atthe 2
attic 5
attie 2
attik 3
attin 1
attis 10
attiu 2
attiz 1
attli 4
attos 1
attsa 2
attun 23
attzu 1
atuca 6
atueb 4
atuen 2
atuer 118
atufe 4
atugn 1
atuie 1
atuis 1
atuke 7
atull 24
atulu 24
atung 3
atura 5
ature 27
aturf 3
aturg 10
aturl 1
aturm 2
aturn 10
aturp 1
aturr 2
aturt 1
aturw 6
atuta 1
atute 5
atuvo 2
atver 4
atvor 1
atzar 3
atzei 1
atzen 2
atzes 6
atzgl 1
atzha 2
atzhe 1
atzin 1
atzka 1
atzlo 1
atzme 2
atzte 5
atztr 1
atzun 61
auang 1
auben 38
auber 15
aubes 2
aubgu 1
aubhe 1
aubig 4
aubli 18
aubni 8
aubri 3
aubsg 1
aubte 21
aubue 6
aubwu 4
aubzu 4
auchb 26
auchd 1
auche 12
auchi 1
auchl 1
aucht 26
auchw 1
auder 15
audie 3
audis 1
audiu 8
audon 2
auena 1
auend 14
auene 3
auenh 1
auenl 1
auenr 1
auens 10
auenv 6
auenw 2
auenz 1
auera 1
auerb 1
auere 5
auerg 4
auerh 2
auerl 3
auern 71
auerp 2
auerr 5
auers 6
auert 13
auest 3
aufba 7
aufbe 7
aufbi 1
aufbl 3
aufbo 3
aufbr 17
aufbu 1
aufde 2
aufei 4
aufen 122
aufer 10
auffa 33
auffi 3
auffo 16
auffu 11
aufga 50
aufge 217
aufgi 4
aufgr 2
aufha 8
aufhe 7
aufhi 5
aufho 6
aufka 1
aufkn 1
aufko 2
aufla 12
aufle 10
auflo 18
aufma 26
aufme 7
aufna 26
aufne 2
aufob 1
aufop 3
aufpa 1
aufpo 1
aufpr 1
aufpu 1
aufra 1
aufre 14
aufri 12
aufro 1
aufru 3
aufsa 12
aufsc 12
aufse 8
aufsi 8
aufsl 1
aufsp 1
aufst 76
aufte 10
auftr 80
aufwa 5
aufwi 1
aufwu 1
aufze 4
aufzo 1
aufzu 111
augel 1
augen 119
auges 1
augre 1
augsb 1
augte 2
augur 3
augus 19
auhei 1
auhen 3
auisc 3
aukas 13
aukel 1
auken 1
aukop 1
aukti 1
aukun 2
aulae 1
aulan 1
aulbe 1
aulen 2
aulet 4
aulhe 3
aulic 9
aulig 1
aulin 1
aulko 1
aullu 2
aulte 1
aulti 1
aulus 11
aulux 1
aulwu 1
aumak 1
auman 1
aumar 1
aumde 1
aumei 1
aumel 1
aumge 1
aumie 1
aumlo 1
aumri 1
aumst 1
aumte 3
aumwe 1
aumwi 1
aunam 3
aunen 12
auner 1
aunig 3
aunis 8
aunli 1
aunus 10
auphi 1
aupla 9
aupol 1
aupta 8
aupte 60
auptf 2
auptg 3
aupth 7
auptk 1
auptl 9
auptm 16
aupto 3
auptp 1
auptq 20
auptr 2
aupts 336
auptu 4
auptv 1
auptw 2
aurak 2
aurat 25
aurel 3
aurer 3
auret 19
aurie 9
aurig 2
aurik 2
auris 6
auroe 1
auros 3
aurun 2
aurus 9
ausam 8
ausba 1
ausbe 3
ausbl 8
ausbo 1
ausbr 43
ausch 15
ausde 15
ausdr 33
ausei 21
ausel 8
ausen 46
auser 15
auses 8
ausfa 7
ausfi 2
ausfl 1
ausfo 3
ausfr 2
ausfu 44
ausga 26
ausge 196
ausgi 8
ausgl 9
ausgo 1
ausgr 1
ausha 8
aushe 23
aushi 1
ausho 2
ausib 1
ausig 1
ausio 3
ausis 1
auska 3
auskl 1
ausko 1
ausla 21
ausle 1
ausli 7
auslo 1
ausma 4
ausmi 3
ausna 69
ausne 1
ausnu 2
auspe 1
auspi 21
ausra 2
ausre 20
ausri 4
ausro 2
ausru 7
aussa 5
aussc 49
ausse 148
aussi 23
ausso 2
aussp 7
ausst 10
austa 1
auste 10
austi 2
austk 1
austr 8
austu 4
ausue 7
ausus 4
auswa 12
auswe 8
auswi 2
auswu 2
ausze 8
auszi 1
auszo 1
auszu 82
autag 1
autem 1
auten 36
auter 8
autes 7
autet 3
authe 1
autin 4
autiu 1
autlo 1
autna 1
autok 5
auton 3
autor 21
autro 3
autun 2
autus 6
auufe 1
auung 15
auvai 1
auver 8
auwes 5
auxim 2
avali 2
avall 4
avanc 1
avane 1
avari 6
avasd 5
avell 1
avels 1
avena 6
avenb 3
avene 1
avenf 1
aveng 1
avenh 3
aveni 2
avenk 2
avenm 4
avenn 14
avenp 3
avenr 2
avens 10
avent 1
avenw 2
avere 5
avert 1
avest 1
avian 1
aviar 2
avidi 1
avids 1
avisc 2
avius 24
avlon 1
avong 6
avoni 3
avonl 3
avont 1
avonz 1
avoro 1
avoui 2
avour 1
avoyi 1
awall 12
awane 4
awine 1
axata 9
axati 1
axile 6
axima 5
axime 6
aximu 3
axiom 1
axite 1
axtsc 1
axumu 1
axwer 1
ayern 1
ayett 1
ayons 1
aysat 1
ayser 1
aysio 1
aytok 2
aytot 1
azaka 2
azaru 2
azeen 1
azemo 1
azier 1
azine 6
azita 5
aziur 2
azizo 2
azome 1
azoni 1
azont 1
azwis 6
azzia 4
baalb 1
babyl 5
bacch 3
bache 1
bacht 12
backe 2
backw 2
bactu 1
bacul 2
badeg 1
baden 2
bades 1
badez 1
baech 2
baeck 2
baede 4
baeer 4
baend 8
baenk 3
baeon 1
baere 2
baerm 4
baert 1
baete 2
baeti 1
baeud 18
baeue 1
baeug 2
baeum 4
baeur 1
bagda 1
bagra 2
bahne 6
bahnt 1
bahre 1
baiae 3
bakch 2
bakte 3
baktr 2
balbu 1
baldm 4
balea 1
balen 2
balge 2
balia 1
balis 7
balka 5
balke 3
balle 1
balls 2
ballt 2
balsk 1
balte 2
balti 1
bamby 1
banau 1
bande 51
bandi 5
banen 1
baner 9
banes 1
banis 3
banit 3
banke 1
banki 13
bankr 13
banne 10
bannf 1
bannm 2
bannt 14
bannu 12
banos 4
bansp 1
bante 2
baoth 1
barac 1
barba 44
barbe 1
barbu 4
barch 1
barde 1
bardi 1
barei 3
barem 2
baren 97
barer 33
bares 13
barfu 1
barga 2
barge 2
baris 21
barke 38
barla 1
barma 1
barme 1
barmh 2
barmu 1
baroc 1
barsc 6
barst 14
barsu 1
barte 20
barun 5
barvo 1
barza 6
basar 1
basel 1
basie 1
basil 2
basis 6
baski 1
basss 1
basta 4
baste 1
bastu 1
batae 17
batai 1
batan 1
baten 8
bathr 1
baths 1
batiu 1
bauch 2
bauen 16
bauer 27
baues 1
bauge 2
bauku 2
bauli 1
baulu 2
baume 1
bauml 1
baumr 1
baums 1
baumw 1
baupl 2
baupo 1
bausc 2
baust 3
baute 27
bauun 2
bauve 1
bauwe 5
bavay 1
bayer 1
bbarb 1
bbath 2
bbeck 1
bbere 1
bberu 15
bbesi 3
bbeza 1
bbist 1
bbole 1
bbrac 1
bbrec 1
bbren 1
bbruc 2
bdefe 1
bdeut 1
bdika 1
bdizi 1
bdrae 2
bdrue 1
beabs 26
beach 5
beamt 66
beant 12
bearb 5
bearn 1
beati 1
beauf 16
beaum 1
beauv 1
bebai 1
beben 1
beche 9
becke 1
bedac 13
bedae 3
bedan 2
bedar 5
bedau 5
bedaw 1
bedec 21
beden 47
bedeu 111
bedie 19
bedin 66
bedra 16
bedro 36
bedru 1
bedue 19
bedui 10
bedun 2
bedur 38
beeif 1
beeil 1
beelz 1
beend 22
beerb 2
beerd 1
beere 8
beerk 1
beers 1
beete 1
befah 20
befan 27
befeh 116
befes 14
befie 2
befin 18
befle 2
befli 4
befoe 1
befoh 12
befol 4
befra 3
befre 49
befri 19
befru 2
befue 8
befug 30
befun 4
begab 35
begae 1
began 49
begeb 11
begeg 38
begeh 33
begei 14
begie 3
begin 46
begla 4
begle 24
beglu 2
begna 9
begnu 28
begon 22
begra 1
begre 50
begri 51
begru 46
begue 7
begut 1
behab 1
behaf 3
behal 14
behan 57
behar 16
behau 48
behel 2
beher 64
behie 8
behil 4
behin 1
behoe 23
behos 1
behre 3
behrl 6
behrt 6
behuf 1
beibe 4
beibr 1
beide 254
beids 1
beiei 3
beifa 4
beifl 1
beifu 7
beige 34
beihi 1
beika 3
beiko 3
beila 10
beile 7
beima 2
beimi 1
beina 20
beine 2
beink 1
beira 12
beirr 1
beiru 2
beisa 5
beisc 1
beise 13
beisp 132
beiss 1
beist 13
beite 59
beitr 14
beits 6
beitu 4
beiwo 2
beizi 1
beizu 29
bejah 8
bejer 9
bejis 4
bekae 8
bekam 5
bekan 69
bekeh 4
beken 9
bekla 11
bekle 23
bekna 1
bekom 2
bekra 1
bekri 3
bekue 8
belad 4
belae 1
belag 94
belan 5
belas 7
belau 6
beleb 4
beleg 12
beleh 8
belei 4
belfo 1
belga 3
belge 13
belgi 25
belha 4
belhi 1
belie 26
belik 2
bella 11
belle 3
belli 9
bello 15
belnd 2
beloh 8
belst 10
belte 3
belus 1
belze 1
bemae 25
bemal 1
beman 5
bemei 4
bemer 32
bemes 3
bemue 17
bemus 1
benac 15
benal 2
benan 1
benar 1
benbe 5
benbr 1
benbu 28
benda 26
bende 68
bendi 53
bendl 1
bendo 2
bendu 1
beneh 2
benei 11
benem 1
benen 104
bener 2
benes 1
benev 2
benfa 21
benfl 4
benge 2
benha 1
benhe 2
benhi 4
benhu 2
benje 6
benko 1
benkr 1
benla 2
benli 1
benlo 1
benma 2
benmo 1
benpf 1
benpu 1
benre 1
benro 1
bensa 6
bensb 3
bensc 2
bensf 3
bensg 5
bensh 1
bensi 1
bensj 7
bensk 1
bensl 5
bensm 8
bensn 1
benso 161
benss 2
benst 2
bensw 3
bensz 5
benta 1
bente 22
benun 2
benut 42
benvo 1
benwi 29
beoba 11
beoff 2
beord 2
bepan 1
bepla 1
beque 37
berad 2
beral 79
beran 3
berat 6
berau 24
berba 6
berbe 31
berbi 2
berbl 3
berbo 2
berbr 5
berco 1
berda 2
berdi 28
berdr 1
berec 50
bered 11
berei 270
beren 22
berer 23
bereu 3
berfa 24
berfe 46
berfi 3
berfl 17
berfu 8
berga 37
bergb 1
berge 98
bergf 1
bergi 4
bergk 1
bergl 8
bergm 1
bergr 8
bergs 7
bergt 1
bergv 2
bergw 1
bergz 1
berha 141
berhe 4
berho 13
berhu 1
beric 52
berie 10
berin 3
beris 15
berit 22
beriu 9
berka 4
berke 3
berkl 1
berko 14
berkr 2
berku 1
berla 27
berle 71
berli 43
berma 58
berme 1
bermi 1
bermu 11
berna 31
bernd 7
berne 19
bernh 2
berno 14
beroe 1
berof 3
berpo 8
berpr 2
berra 11
berre 11
berrh 9
berri 1
berru 4
bersa 4
bersc 90
berse 33
bersi 7
berso 1
bersp 4
berst 45
bersz 1
berte 11
bertr 78
bertu 1
berue 33
beruf 51
beruh 42
berun 50
berve 2
bervo 1
berwa 24
berwe 9
berwi 35
berwo 9
berwu 26
beryt 3
berza 1
berze 26
berzu 14
besab 1
besan 6
besas 20
besat 47
besba 2
besch 314
besee 1
beseg 1
beseh 2
besei 48
besel 1
besen 1
beses 7
beset 76
beseu 1
besge 3
besha 2
besic 1
besie 37
besin 2
besit 111
besol 7
beson 78
besor 23
bespa 1
bespo 1
bespr 2
bessc 1
besse 103
besta 131
beste 178
bestg 3
besti 209
besto 2
bestr 28
bestu 1
besuc 7
besun 1
besys 1
betae 3
betei 22
beten 7
betet 1
beteu 1
beton 1
betra 75
betre 25
betri 23
betro 8
betru 6
bette 7
bettl 7
betuh 1
betui 1
beuge 1
beugt 2
beugu 1
beunr 1
beurl 1
beurt 3
beute 17
beutu 1
bevoe 46
bevol 3
bevor 67
bewac 6
bewae 15
bewaf 41
bewah 27
bewar 3
beweg 78
beweh 1
bewei 53
bewen 1
bewer 39
bewes 2
bewie 19
bewil 12
bewir 22
bewog 7
bewoh 31
bewun 15
bewus 23
bezae 1
bezah 18
bezei 93
bezeu 12
bezic 1
bezie 41
bezir 15
bezog 3
bezwa 2
bezwe 5
bezwi 4
bezwu 12
bfahr 1
bfall 9
bfang 1
bfass 1
bfede 1
bfein 3
bfert 2
bfind 2
bfolg 4
bfrei 1
bfueh 2
bfuhr 1
bgabe 16
bgang 8
bgaro 9
bgebe 2
bgebo 2
bgebr 3
bgeda 1
bgedu 1
bgefa 5
bgefl 1
bgefu 2
bgega 3
bgege 5
bgegr 2
bgeha 7
bgehe 5
bgeho 3
bgeir 1
bgeka 1
bgeko 2
bgeku 1
bgela 3
bgele 10
bgeli 1
bgelo 2
bgene 7
bgeno 2
bgenu 2
bgeor 2
bgere 1
bgeri 5
bgeru 1
bgesa 4
bgesc 31
bgese 15
bgeso 2
bgesp 4
bgest 5
bgeta 2
bgete 1
bgetr 4