-total 224729
ababb 1
abacc 6
abaci 2
abagi 1
abaio 2
aball 1
abana 2
abant 1
abard 1
abari 1
abarr 1
abato 3
abatt 3
abbag 3
abbai 1
abban 40
abbas 55
abbat 12
abbel 1
abbes 1
abbia 121
abbie 7
abbig 4
abbin 1
abbio 9
abbon 9
abbor 2
abbot 1
abboz 5
abbra 57
abbre 1
abbri 12
abbro 10
abbui 1
abbuo 8
abbus 1
abdic 2
abele 1
aberg 1
abess 1
abicc 1
abiet 1
abile 73
abili 40
abilm 10
abina 2
abine 1
abini 4
abiri 4
abiss 4
abita 28
abiti 13
abito 12
abitu 20
ablan 2
abocc 4
aboga 2
abola 2
abole 1
aboli 1
abomb 1
abond 9
abooo 1
abora 14
abori 1
abota 2
abott 3
abrad 1
abras 4
abres 1
abrez 5
abria 3
abrio 3
abriz 2
abrog 1
abron 1
abruz 2
absol 1
abusa 1
abusi 2
abutt 3
abuzz 4
acaci 1
acadu 3
acaff 1
acale 1
acali 2
acane 1
acann 1
acanz 4
acare 3
acari 3
acaso 1
acass 4
acata 1
acati 1
acato 4
acazz 1
accad 9
accal 3
accam 3
accan 25
accap 4
accar 19
accas 1
accat 30
accav 10
accec 1
acced 4
accel 4
accen 58
accer 5
acces 37
accet 31
acche 41
acchi 123
accia 267
accid 3
accig 20
accin 2
accio 138
accis 2
acciu 3
accoc 1
accog 15
accol 33
accom 44
accon 92
accop 6
accor 81
accos 7
accov 2
accud 2
accui 8
accum 3
accur 2
accus 43
acedo 1
acell 4
acemm 1
acend 22
acene 2
aceno 1
acent 11
acenz 1
acera 1
acerb 1
acerd 3
acere 30
aceri 4
acerl 1
acerr 2
acerv 1
acess 12
aceut 1
aceva 158
acevi 3
acevo 15
achea 1
achia 1
achid 1
achil 3
achin 1
achir 2
aciar 4
acias 1
aciat 1
acida 2
acidi 1
acido 7
acier 1
acifi 4
acija 2
acile 24
acili 6
acilo 1
acima 1
acina 3
acine 6
acini 1
acino 1
acinq 7
acion 1
aciss 1
aciut 12
acket 1
ackja 1
acola 3
acoli 2
acoll 5
acolm 1
acolo 22
acolt 1
acoma 1
acone 1
aconi 1
acott 1
acqua 49
acque 10
acqui 14
acral 1
acran 1
acrar 1
acrat 3
acrav 2
acrif 4
acrim 16
acrob 6
acruz 1
acson 4
actus 1
acuar 2
acucc 2
acuna 2
acune 1
acuta 2
acuto 1
adagi 2
adagn 21
adale 1
adali 2
adall 1
adams 1
adano 2
adare 5
adarg 1
adata 1
adate 1
adatt 9
adava 2
adave 9
adazi 1
adcoa 1
addal 2
adden 2
adder 1
addes 4
addet 2
addic 1
addio 14
addir 21
addit 3
addiz 2
addob 1
addom 1
addop 1
addor 12
addos 30
addri 5
adegu 1
adele 1
adell 4
adelm 3
adelp 1
ademi 2
ademp 1
adent 6
adenz 6
adere 8
aderg 1
aderi 1
aderl 1
adern 1
aders 1
adese 3
adesi 2
adess 163
adeva 7
adevo 2
adiac 1
adica 6
adici 3
adigl 5
adile 1
adili 1
adime 5
adimi 5
adina 5
adine 1
ading 1
adini 16
adino 13
adioc 1
adiof 1
adire 1
adirl 1
adisc 1
adiso 2
aditi 2
adito 14
adiva 4
adizi 3
adocc 2
adole 2
adonn 18
adono 5
adope 2
adora 3
adorn 1
adoss 3
adott 3
adrai 1
adrar 2
adrat 10
adreb 1
adren 1
adrep 3
adres 2
adret 4
adria 5
adrig 1
adron 17
adrun 1
adual 1
aduce 3
aduch 1
adula 1
adult 4
aduna 5
adunc 1
adurr 3
aduss 3
aduta 12
adute 1
aduti 6
aduto 2
aduzi 4
adver 1
aendo 2
aente 2
aerei 2
aereo 8
aerop 14
aesag 5
aesam 1
aesan 2
aesin 2
aesto 1
aestr 6
aetan 1
afalc 2
afalg 1
afang 2
afard 1
afare 1
afarl 1
afato 1
afatt 1
afaye 1
afela 2
afers 1
affab 2
affac 5
affae 1
affal 1
affan 8
affar 43
affas 7
affat 9
affeg 6
affei 1
affel 2
affer 45
affet 14
affez 3
affia 18
affic 25
affid 6
affie 1
affil 2
affin 11
affio 5
affir 1
affit 4
afflu 1
affog 3
affol 2
affon 11
affor 2
affra 3
affre 8
affro 11
affum 1
affut 1
afgha 1
afica 8
afich 1
afici 2
afico 6
afila 1
afile 1
afios 2
afiss 1
afiti 1
afogl 11
afone 1
afoni 3
afora 1
afoso 1
afoss 2
afrag 2
afrai 1
afric 10
after 2
afuga 1
agabo 4
agabr 2
agace 1
agagl 5
agagn 1
agall 2
agame 5
agand 4
agano 56
agant 1
agare 38
agari 42
agarl 1
agars 1
agasa 1
agasc 1
agata 4
agati 2
agato 12
agatu 1
agava 4
agazz 166
agedi 1
agemm 2
agena 1
agent 61
agenz 2
agera 9
agevo 1
aggan 5
aggeg 3
agget 1
aggez 3
agghi 5
aggia 112
aggin 2
aggio 277
aggir 4
aggiu 115
aggot 1
aggra 12
aggre 7
aggri 2
aggro 3
aggua 2
aggue 1
agher 5
aghet 5
aghia 5
agiar 1
agici 1
agico 1
agile 1
agili 2
agina 35
agine 19
agini 10
agino 8
agiol 1
agion 57
agios 1
agire 8
agisc 1
agist 3
agita 24
agiti 1
agito 3
agitt 5
agiva 1
aglia 105
aglie 17
aglio 62
agnai 1
agnan 29
agnar 14
agnat 26
agnav 7
agnel 3
agner 3
agnes 3
agnet 8
agnia 13
agnif 2
agnin 2
agnol 7
agnon 1
agnos 1
agnot 1
agnuo 5
agogh 1
agogo 1
agola 4
agole 1
agoma 7
agome 2
agona 1
agone 9
agoni 10
agono 1
agora 1
agord 1
agore 1
agost 6
agott 1
agozz 1
agraf 1
agram 2
agran 1
agrar 3
agres 1
agric 2
agris 1
agrit 1
agrol 1
aguar 3
agure 1
agusa 13
ahama 1
aiale 3
aiali 1
aiand 1
aiani 1
aiano 1
aiarm 1
aiars 2
aiati 2
aiato 3
aiava 1
aidor 1
aiger 3
aigon 3
ailan 1
ailro 1
ainar 1
ainat 2
ainly 1
ainst 1
ainte 1
ainto 1
aiocc 1
aiola 2
aiolo 1
aione 2
aiono 2
aioso 1
airba 1
aires 1
aisir 1
aitan 1
aitar 2
aiuol 1
aiusc 1
aiuta 35
aiute 3
aiuti 2
aiuto 15
ajevo 1
akera 2
aklaw 1
alaba 1
alabr 2
alace 4
aladi 1
aladu 1
alagg 2
alain 4
alaio 1
alali 1
alame 7
alami 2
alanc 22
aland 4
alang 3
alann 3
alano 2
alant 2
alape 2
alare 3
alari 2
alarl 3
alasc 3
alaso 2
alasp 2
alass 1
alata 2
alate 2
alati 3
alato 24
alatt 4
alava 8
alavi 5
alavo 1
alazi 2
alazz 17
alban 3
albat 1
alber 26
album 1
alcag 1
alcam 1
alcan 6
alcar 2
alcat 5
alcav 3
alcel 2
alces 2
alche 128
alchi 1
alcia 4
alcid 1
alcio 22
alcis 1
alcit 2
alcol 10
alcon 5
alcos 136
alcun 181
alcut 3
aldac 1
aldam 1
aldan 3
aldar 6
aldat 1
aldav 2
aldem 1
alder 2
aldes 1
aldic 1
aldin 1
aldra 1
aldro 1
alede 3
aledi 5
alega 1
alegg 1
aleks 1
alena 5
alend 3
alenk 4
aleno 1
alent 5
aleon 1
alera 24
alerm 5
aless 1
alett 11
aleva 12
alevo 3
alexa 8
alezz 1
alfas 1
alfat 1
alfer 1
alfie 2
alfit 1
alfre 8
algan 1
algar 1
algia 2
algic 2
algon 2
aliam 2
alian 159
alias 6
alica 1
alice 2
alida 3
alidi 1
alido 2
alien 3
alier 11
alifo 9
alige 8
aligi 22
align 1
alija 1
alill 1
alime 1
alina 2
alinc 1
aling 2
alini 3
alino 1
alipp 1
alire 17
alirg 1
aliro 3
alisi 1
alism 18
aliss 2
alist 31
alita 3
alite 4
aliti 1
alito 12
aliva 12
alizi 5
alizz 24
alkie 4
allab 1
allac 6
allag 1
allan 2
allar 39
allas 1
allat 7
allav 2
allea 27
alleg 29
allel 3
allen 18
alleo 1
aller 12
alles 2
allet 3
allev 5
allia 2
allib 5
allic 3
allid 8
allie 4
allig 1
allil 2
allim 1
allin 19
allir 1
allit 11
allog 3
allol 1
allon 43
allop 3
allor 144
allos 1
allot 10
alluc 3
allud 1
allun 39
alluo 1
allus 3
alman 1
almar 7
almas 2
almat 11
almav 1
almaz 9
almec 1
almen 108
almes 1
almip 1
almir 3
aloam 2
alocc 1
alogn 3
alogo 3
aloma 1
alomo 1
alonc 1
alone 5
aloni 15
aloon 1
alopp 3
alord 1
alore 8
aloro 1
aloss 1
alote 1
alott 9
alpeb 5
alpes 2
alpit 2
alqua 2
alras 1
alsan 2
alsed 1
alset 1
alsia 24
alsoc 1
altan 4
altar 14
altas 1
altat 8
altav 7
altel 2
alter 65
altez 17
altie 1
altim 3
altip 1
altis 4
altiz 1
altop 4
altra 122
altre 62
altri 143
altro 294
altru 3
altwe 1
aluba 1
alude 1
alumi 1
alumo 1
alunn 2
alunq 13
alupp 3
alust 1
aluta 32
alute 6
aluti 18
aluto 8
alvab 1
alvan 2
alvar 8
alvat 65
alvav 1
alvey 1
alvez 1
alvis 1
alviv 1
alzan 14
alzar 28
alzat 18
alzav 12
alzer 2
alzet 2
alzia 1
alzin 5
alzol 2
alzon 3
amabi 2
amade 1
amall 2
amalo 1
amand 3
amani 3
amano 15
amant 10
amanz 3
amara 2
amare 11
amari 2
amarl 4
amarm 2
amaro 14
amars 1
amarv 1
amata 3
amate 4
amati 5
amato 19
amatt 3
amava 44
amavi 1
amazi 1
amazz 5
ambar 1
ambas 4
ambav 1
ambel 1
amber 2
ambia 64
ambie 5
ambig 2
ambin 34
ambio 20
ambit 5
ambiv 1
ambiz 2
ambol 3
ambra 1
ambre 6
ambri 1
ambuc 1
ambul 3
ambur 1
ambus 3
amede 1
amedi 1
amela 1
ameli 2
amell 5
ament 269
amera 21
amerd 3
amere 7
ameri 182
amest 1
amher 1
amiam 4
amica 14
amice 2
amich 5
amici 93
amico 79
amida 1
amide 2
amido 1
amigl 33
amigo 1
amila 22
amili 4
amina 5
aminc 4
amine 7
amini 3
amino 1
amins 2
amint 1
amion 81
amism 1
amita 2
amite 6
amiti 5
amlet 1
ammai 1
ammal 1
amman 2
ammar 7
ammas 1
ammat 4
ammaz 35
ammel 3
ammen 7
ammes 1
ammet 4
ammic 7
ammif 1
ammin 59
ammir 26
ammis 1
ammob 5
ammol 2
ammon 4
ammor 3
ammuc 3
ammuf 2
ammut 3
amnes 3
amnik 1
amnio 1
amnis 1
amoce 1
amoci 9
amogl 1
amola 2
amolo 3
amoni 1
amont 19
amora 10
amore 13
amori 2
amorr 1
amort 2
amosa 2
amosi 3
amoso 16
amoun 2
amova 4
ampad 5
ampag 13
ampan 10
ampar 10
ampat 9
ampav 3
ampeg 3
ampia 1
ampic 5
ampie 1
ampil 1
ampin 1
ampio 30
ampir 2
ampit 1
ampli 1
ampol 3
ampon 3
ampos 1
amsci 2
amuel 1
amuff 2
amuse 1
amuta 1
amvia 1
anada 2
anade 3
anage 1
anagg 3
anagl 3
anagr 1
anaka 4
anale 7
anali 7
analo 1
anama 2
anamn 3
anana 4
anand 2
anano 1
ananz 2
anapo 2
anarc 4
anard 1
anare 7
anari 2
anarl 1
anaro 2
anars 7
anarv 1
anasi 5
anass 2
anast 13
anata 7
anate 5
anati 1
anato 9
anatr 2
anava 8
anben 1
ancab 1
ancal 6
ancan 17
ancar 14
ancas 1
ancat 22
ancav 11
ancel 14
ancer 1
ances 80
ancet 2
anche 456
anchi 37
ancia 84
ancin 1
ancio 9
ancis 2
ancit 1
anciu 2
ancob 1
ancoc 2
ancon 33
ancor 250
ancro 2
ancul 4
andab 1
andag 1
andal 10
andam 2
andan 26
andar 134
andas 8
andat 99
andav 67
andel 13
anden 2
ander 13
andes 18
andev 1
andez 2
andia 48
andib 3
andic 1
andid 4
andie 32
andin 7
andio 1
andir 2
andis 8
andit 4
andiv 2
andog 8
andol 23
andom 1
andon 22
andos 53
andot 2
andra 2
andre 11
andro 1
andwi 1
anedd 5
aneli 1
anell 22
anemi 1
anemo 1
anend 3
anenz 1
anere 12
anero 3
anesc 2
anese 2
aness 2
anest 2
aneta 8
anett 8
aneva 6
aneve 1
anevo 2
anfan 10
anfil 1
anfit 1
anfre 1
anfri 2
anfru 2
angan 5
angar 1
angat 1
angel 170
angen 1
anger 17
anges 2
angev 5
angha 1
anghe 3
anghi 3
angia 36
angio 1
anglo 6
angol 28
angon 1
angor 2
angos 1
angre 1
angst 7
angua 1
angue 43
angug 2
angui 11
angur 1
anhat 5
aniac 3
aniat 3
anica 14
anich 10
anici 1
anico 22
anicu 1
aniel 2
anier 27
anife 13
aniga 1
anigl 1
anile 1
anili 1
anima 26
anime 1
animi 4
animo 6
anina 2
anine 1
anini 2
anino 2
aniro 1
anisc 1
anise 2
anisf 1
anism 10
aniss 1
anita 1
anite 1
aniva 1
anizz 18
anjse 2
ankee 2
ankie 8
annag 8
annam 2
annar 4
annas 2
annat 16
annaz 1
anneb 1
anneg 8
annel 4
annes 12
annic 24
annie 2
annik 1
anniv 3
annoc 2
annod 1
annoi 1
annom 9
annon 15
annos 3
annot 1
annue 1
annui 15
annul 5
annun 14
annus 9
anocc 1
anofo 2
anoia 3
anoic 1
anoma 1
anone 1
anoni 4
anopo 5
anora 2
anosc 1
anotr 1
anott 15
anova 1
anove 1
anovr 10
anpol 1
anqui 33
anrem 1
anrov 1
ansco 1
ansel 2
ansen 2
ansia 3
ansig 2
ansim 4
ansio 1
anski 1
ansla 1
ansor 1
anspe 1
antac 5
antad 4
antag 7
antal 17
antam 17
antan 10
antar 9
antas 19
antat 15
antav 5
antef 1
antel 1
antem 1
anten 26
anter 8
antes 9
antev 2
antia 4
antic 27
antid 1
antie 4
antif 5
antil 6
antin 40
antip 2
antiq 1
antir 3
antis 7
antit 13
antoc 1
antoi 2
antom 3
anton 13
antot 1
antov 7
antra 2
antri 1
antro 2
antuf 1
antuo 1
antur 1
anual 1
anubi 1
anubr 4
anuel 2
anura 2
anvie 2
anyth 2
anzal 1
anzan 3
anzar 6
anzat 8
anzav 4
anzet 3
anzia 20
anzic 2
anzie 3
anzit 1
anzol 1
anzon 4
anzos 3
aolin 11
aonaz 5
aordi 4
aotia 1
aotta 1
apacc 2
apace 13
apaci 8
apall 2
apalm 1
apana 1
apane 1
apann 16
aparl 2
apart 1
apata 2
apave 3
apazz 2
apela 1
apell 31
apelo 1
apemm 12
apena 2
apend 3
apere 45
aperi 2
aperl 8
apern 1
apero 12
apers 1
apert 15
apess 5
apest 1
apete 33
apett 3
apeva 81
apevi 5
apevo 11
apiam 1
apian 1
apice 1
apida 7
apide 2
apidi 6
apido 5
apied 10
apien 2
apigl 1
apile 1
apill 1
apime 2
apina 6
apirc 1
apire 49
apiri 1
apirl 7
apirn 1
apirv 1
apisc 45
apiss 3
apist 2
apita 46
apite 9
apiti 3
apito 177
apiva 13
apivi 1
aplan 14
aplin 3
aplom 2
apoco 1
apoda 1
apofa 2
apofi 2
apola 2
apole 16
apoli 76
apolo 1
apolu 2
apona 1
apone 6
aponi 1
apora 2
apore 10
apori 2
aport 9
apote 2
apotr 1
apott 1
apove 1
apovo 1
apozz 1
appag 2
appan 6
appar 70
appas 5
appat 12
appav 5
appel 32
appen 87
apper 7
appes 8
appet 6
appez 1
appia 23
appic 6
appig 1
appin 5
appio 1
appis 3
appit 1
appla 13
apple 1
appli 1
appoc 1
appog 34
appol 6
appon 103
appor 32
appos 8
appot 21
appre 34
appri 1
appro 22
appuc 1
appun 28
apran 1
apreb 1
aprei 4
apren 2
apres 3
apret 2
apria 2
apric 1
april 33
aprio 3
aprip 1
aprir 17
aprit 1
apriv 6
apron 2
aptat 1
aptav 1
apucc 1
apugn 1
apule 1
aputa 2
aputo 17
aputt 2
aquat 1
aquel 1
aquis 1
arabi 5
arabo 6
arabr 5
arabu 3
araca 5
aracc 8
arace 1
araci 6
aradi 2
arado 3
arafa 2
araff 1
arage 2
aragl 1
arago 2
araib 1
araje 1
arale 1
arali 1
arall 4
arama 3
arame 7
arami 2
aramo 2
aranc 5
arand 7
arann 13
arano 16
arant 31
aranz 6
araon 1
arape 3
arapi 1
arapu 2
arare 19
ararl 1
ararm 1
araro 1
arars 3
arata 4
arate 4
arath 1
arati 8
arato 29
aratt 22
arava 9
arazi 12
arazz 23
arbab 1
arbar 2
arbat 2
arbie 4
arbin 1
arbit 4
arbon 5
arbri 2
arbug 1
arbur 8
arcar 4
arcas 8
arcat 9
arcel 4
arcen 3
arcer 7
arche 17
archi 62
arcia 28
arcim 5
arcin 1
arcio 5
arcip 1
arcir 2
arcis 2
arcit 3
arcoi 2
arcol 1
arcon 1
arcot 8
arcui 1
ardab 1
ardal 2
ardam 12
ardan 17
ardar 49
ardas 5
ardat 15
ardav 25
ardel 6
arden 2
ardia 20
ardie 18
ardin 12
ardit 1
ardiv 1
ardne 1
ardon 2
ardor 1
arebb 142
arecc 47
aregg 5
arein 2
arell 5
aremm 7
aremo 12
arena 2
arent 22
arenz 3
arere 8
aresc 19
arese 4
aresi 2
arest 13
arete 18
areth 1
areti 5
arett 81
areva 33
arevo 1
arezz 16
argar 1
argas 1
argat 1
argav 2
argen 4
arger 2
argev 2
arghe 3
arghi 1
argia 2
argil 1
argin 7
argit 1
argli 72
argom 15
argot 1
ariam 2
arian 31
ariat 10
ariba 68
aribo 1
arica 49
arich 17
arici 1
arico 39
aride 1
aridi 1
arido 1
ariet 4
arigi 21
arile 2
arili 1
arily 6
arina 22
arine 2
aring 1
arini 4
arino 2
arioc 1
arion 2
ariop 2
aripa 1
arire 17
arisa 13
arisc 2
arism 2
ariss 4
arist 11
arite 1
ariti 6
arito 42
aritt 3
ariuo 4
ariva 7
arizi 3
arjee 1
arkab 1
arklo 1
arlam 3
arlan 30
arlar 104
arlas 1
arlat 41
arlav 44
arlem 1
arler 4
arles 25
arlia 11
arlie 3
arlin 31
arlon 1
arlot 7
arlso 1
armac 8
armad 8
armam 2
arman 1
armat 20
armav 1
armeg 1
armel 4
armen 7
armer 14
armia 7
armic 1
armin 11
armio 1
armir 1
armis 2
armon 3
armor 1
arnag 1
arnaz 1
arnef 2
arnes 1
aroba 2
arobi 1
arocc 12
arodu 1
arogn 7
arola 28
arold 1
arole 63
arolo 2
aroma 2
arone 5
aroni 9
aronn 6
arono 147
arore 1
arosa 1
arosi 1
arota 9
arote 2
aroun 1
arovi 1
arpai 1
arpat 2
arpet 1
arpio 3
arpir 3
arpon 1
arrab 6
arram 2
arran 4
arrar 1
arrat 3
arrea 1
arrec 1
arred 5
arreg 2
arrel 1
arren 5
arres 18
arret 12
arric 7
arrie 13
arrin 2
arrio 4
arrir 2
arris 1
arrit 4
arriv 173
arroc 11
arrog 3
arron 5
arros 8
arrot 4
arrov 1
arroz 2
arruc 5
arruf 1
arrug 3
arruo 4
arsal 1
arsei 2
arsel 8
arsen 16
arsha 1
arsig 23
arsim 2
arson 2
arsta 1
artac 1
artag 1
artal 1
artam 6
artar 2
artat 1
artec 12
arted 6
artel 26
arten 16
arter 3
artes 1
arthe 1
arthy 28
artia 4
artic 40
artie 22
artif 8
artig 47
artim 2
artin 3
artir 43
artis 8
artit 90
artiv 4
artiz 4
artme 1
artne 2
artoc 3
artol 3
arton 3
artoo 1
artor 3
artro 2
aruga 1
arusi 4
aruso 1
arusu 1
arvel 2
arven 2
arver 1
arxis 1
arygr 2
arzab 3
arzer 1
arzia 4
arzig 1
asaki 1
asale 1
asali 3
asalt 1
asame 1
asana 1
asand 2
asano 1
asant 1
asare 1
asata 1
asate 1
asati 1
asato 6
ascal 1
ascap 1
ascar 2
ascas 1
ascat 1
ascav 1
ascel 8
ascer 8
asche 16
aschi 6
ascia 163
ascib 1
ascic 4
ascin 33
ascio 9
ascis 53
ascit 6
asciu 16
ascol 47
ascon 30
ascop 1
ascor 17
ascos 30
ascun 9
ascur 3
aseba 1
asegg 1
aseie 5
asell 3
asent 1
asera 7
aserm 3
asero 11
asert 3
asett 4
asfal 5
asfer 14
asfor 15
ashin 6
ashom 1
asiat 4
asibo 1
asica 1
asico 1
asili 1
asilo 3
asima 1
asina 2
asine 1
asini 6
asino 11
asion 29
asios 1
asist 1
asivo 1
asmat 1
asmav 1
asmes 2
asmet 4
asmis 2
asnad 1
asoid 3
asoio 2
asold 1
asoli 1
asori 2
asort 2
asott 1
aspal 3
aspar 4
asper 3
aspet 115
aspir 1
aspit 1
aspol 1
aspor 22
aspri 4
aspro 1
asput 4
asqua 8
assab 2
assac 4
assag 36
assai 9
assal 13
assam 6
assan 13
assap 10
assar 35
assas 10
assat 67
assav 25
assaz 8
assed 6
asseg 46
assem 3
assen 12
asser 25
asset 15
assho 1
assia 2
assib 5
assic 34
assid 1
assie 9
assif 1
assil 2
assim 29
assin 13
assio 18
assis 8
assit 3
assoc 8
assod 1
assof 1
assog 1
assoi 2
assol 17
assom 6
asson 16
assop 1
assor 4
assos 4
assue 3
assum 10
assun 7
assur 11
astag 1
astai 1
astan 28
astar 13
astas 13
astat 8
astav 26
asteg 1
astel 11
aster 4
astia 1
astic 18
astid 14
astig 7
astim 1
astin 1
astio 2
astod 1
astom 3
aston 10
astor 4
astos 1
astra 16
astre 5
astri 3
astro 11
astuc 6
astuo 1
astur 2
astut 1
astuz 1
asual 2
asvol 1
atacc 9
atafa 2
atage 2
atala 1
atale 12
atali 2
atalo 1
atame 9
atand 1
atano 2
atare 3
atari 1
atarr 1
atate 2
atatr 1
ateal 1
ateau 1
ateci 4
atega 3
ategi 11
ategl 2
atego 5
atela 2
atele 5
atell 89
atelo 4
atema 15
ateme 1
atemi 15
atena 8
atene 1
atent 1
atera 7
ateri 13
aterl 1
atern 3
aterr 1
ateti 1
ateve 1
atevi 8
atezz 4
ather 2
athos 1
atica 44
atich 7
atici 10
atico 32
atidi 1
atile 1
atina 5
atine 1
atini 3
atino 4
ation 4
atire 1
atisc 1
atiss 1
atist 1
atita 5
atite 1
atito 1
atitu 6
ativa 21
ative 11
ativi 7
ativo 14
atizz 3
atlan 6
atlet 1
atmos 3
atogr 10
atoio 3
atola 5
atole 4
atomi 17
atone 2
atope 1
atorc 1
atore 178
atori 93
atorp 1
atoru 1
atosf 1
atosi 2
atovi 7
atrac 1
atral 2
atran 1
atrap 1
atrat 1
atria 14
atric 21
atrie 1
atrim 7
atrin 2
atrio 14
atron 3
atros 1
attab 1
attac 56
attag 15
attai 2
attam 3
attan 11
attar 22
attas 7
attat 24
attav 12
atteg 4
attem 7
atten 112
atter 58
attes 24
attet 1
attev 11
attez 2
attia 3
attic 3
attie 4
attig 3
attil 5
attim 38
attin 46
attir 6
attis 2
attit 1
attiv 42
attle 4
attol 3
atton 16
attop 1
attor 70
attra 49
attre 6
attri 10
attro 81
attua 2
attug 2
attui 2
attum 1
attur 12
attut 67
atuag 1
atuaz 1
atuin 1
atuit 2
atula 1
atuni 5
atura 72
ature 18
aturg 3
aturo 1
aucas 6
aucou 1
audac 1
audir 2
audis 2
audiv 1
audon 1
auffe 1
aufra 3
aught 1
augur 4
augus 7
aulle 1
auloi 1
aumat 2
aumen 3
aunod 1
aurat 1
aurea 1
aurel 4
aurib 1
aurim 1
aurit 2
auriz 1
auror 35
ausat 2
ausav 1
ausea 10
auser 10
ausol 3
auspi 2
auste 1
austi 1
austr 5
autel 3
auten 2
autic 1
autis 20
autob 2
autoc 5
autod 3
autog 7
autoi 1
autol 1
autom 10
auton 3
autop 1
autor 19
autos 1
autot 1
autri 1
autun 5
auzio 6
avabo 2
avadi 1
avagg 3
avagl 2
avagn 1
avalc 7
avald 2
avale 1
avali 9
avall 32
avamb 1
avamo 21
avana 1
avand 3
avano 292
avans 2
avant 120
avanz 18
avarc 2
avare 7
avari 3
avarl 1
avarm 1
avarn 1
avars 3
avart 2
avarz 1
avasi 3
avata 5
avate 14
avati 3
avato 3
avatr 2
avatt 42
avatu 3
avava 5
avecc 1
avede 5
avegg 1
aveme 1
avemo 1
avena 2
avend 2
avenn 6
avent 12
avera 7
averc 4
avere 53
averg 2
averi 5
averl 15
averm 1
avern 13
avero 7
avers 47
avert 2
averv 1
avesi 1
avess 79
avest 4
avete 86
aveva 868
avevi 19
avevo 32
avezz 1
avial 1
aviaz 1
avicc 10
avida 2
avide 9
avier 2
avies 1
aviga 2
avigl 13
avime 13
avini 8
aviss 2
avist 1
avita 5
avite 4
avlov 1
avoir 2
avola 12
avole 3
avolf 1
avolg 1
avoli 23
avolo 74
avols 1
avolt 11
avone 1
avora 62
avore 21
avori 15
avoro 63
avorr 1
avour 1
avrai 5
avran 6
avreb 185
avrei 15
avrem 9
avren 1
avres 11
avret 2
avuta 1
avute 1
avuto 33
avvan 1
avvel 2
avven 19
avver 108
avvez 1
avvia 8
avvic 57
avvie 1
avvil 1
avvin 2
avvis 9
avviv 5
avvoc 32
avvol 18
awaia 1
awano 1
awful 1
ayett 1
aying 1
aymon 32
aysga 1
ayurv 1
aywor 1
aziam 4
azian 3
aziar 7
aziat 10
aziav 1
azien 29
azifa 1
azion 461
azios 4
azism 1
azist 19
azurk 2
azzac 1
azzal 4
azzam 2
azzan 11
azzar 38
azzas 1
azzat 52
azzav 10
azzea 1
azzec 3
azzer 1
azzes 1
azzet 7
azzia 4
azzie 3
azzim 2
azzin 44
azzir 1
azzis 4
azzit 4
azziv 1
azzoi 1
azzol 26
azzon 37
azzot 6
azzur 34
babbo 24
babbu 1
babel 1
babic 2
babie 1
babil 15
babis 1
bacca 2
bacch 5
bacco 7
bacia 5
bacin 4
bacio 7
bacon 2
bacuc 2
badar 6
badat 1
badav 1
badig 5
badil 2
badir 1
badit 1
badiv 1
baffe 4
baffi 11
baffo 2
bagag 5
bagas 1
baggi 1
bagis 1
bagli 34
bagna 6
bagni 3
bagno 19
bagor 1
baham 1
baian 1
baint 1
baioc 1
baion 2
balad 1
balca 6
balco 5
balda 3
baldi 68
baldo 1
baldr 1
balen 4
baler 7
balie 1
balil 1
balla 30
balle 19
balli 3
ballo 12
balme 1
balor 1
balta 3
balti 1
balub 1
balza 11
balzi 2
balzo 3
bambi 37
banal 2
banan 3
banca 12
banch 13
banco 48
banda 7
bande 3
bandi 34
bando 29
banes 1
bania 3
banks 1
bante 2
banti 1
barac 7
barag 1
barat 4
baraz 21
barba 18
barbe 1
barbi 5
barbo 1
barca 22
barch 2
barco 8
barda 12
bardi 1
barie 1
baril 3
barin 1
baris 7
barli 1
barma 1
baroc 1
baron 5
barra 3
barre 2
barri 3
barta 1
barth 1
barto 1
basal 1
basat 1
basce 2
basci 2
baseb 1
baset 1
basic 1
basil 1
basis 1
bassa 27
basse 4
bassi 7
basso 20
basta 106
baste 3
basti 6
basto 9
batac 2
batel 1
batem 8
batic 1
batoi 1
batro 1
batta 15
batte 59
batti 8
batto 5
battu 39
baule 1
bauno 1
bavan 2
bavar 1
bavat 3
baver 5
bazie 1
bbagl 3
bbaia 1
bbalz 5
bband 40
bbass 30
bbast 25
bbate 8
bbati 1
bbatt 4
bbedi 1
bbell 1
bbero 69
bbess 1
bbiam 93
bbian 4
bbiar 1
bbiat 5
bbidi 1
bbiet 5
bbigl 4
bbino 1
bbion 3
bbios 3
bbiot 2
bbirs 1
bbito 1
bbles 1
bblic 44
bblig 3
bbona 5
bbond 4
bbord 2
bbott 4
bbozz 5
bbrac 34
bbrai 10
bbrev 1
bbric 11
bbriv 1
bbron 4
bbuin 1
bbusc 1
bcult 1
bdica 1
bdolo 1
beach 1
beata 1
beati 2
beato 1
beauc 1
beble 1
becca 9
becch 5
becco 3
becil 4
becke 1
becoi 1
bedet 1
bedis 1
beeth 1
befan 2
beffa 1
beige 2
belga 1
belgi 4
belgr 3
belie 1
bella 49
belle 18
belli 27
bello 22
belpa 1
benas 18
bench 2
bende 2
bendo 1
bened 7
benef 4
benem 2
benes 5
benfe 21
benga 2
benin 1
benis 9
benit 2
bentl 3
bento 1
bentr 1
benve 2
benzi 5
beone 1
beoni 1
beppe 2
beral 5
beram 1
beran 1
berar 9
berat 14
berav 3
beraz 10
berco 2
berga 5
bergh 2
bergm 2
bergo 6
berie 1
berij 7
berko 1
berli 14
berma 1
berna 4
berni 1
berre 7
berri 1
bersa 2
bersi 1
berta 2
berth 1
berti 1
berto 13
bertr 2
bespi 44
besse 2
beste 9
besti 18
betit 2
betsi 1
betsy 32
betta 2
betto 4
betty 1
bevan 1
bever 3
bevia 2
bevon 2
bevut 5
bevve 1
biadi 1
biale 1
biame 7
biamo 89
biana 3
bianc 68
biand 7
biani 2
biano 1
biarc 1
biare 19
biarl 2
biarm 1
biaro 3
biars 3
biasc 1
biasi 1
biass 1
biate 3
biati 4
biato 14
biatt 1
biava 3
bibbi 1
bibli 1
bicch 28
bicco 1
bicic 15
bicip 1
bidel 1
bidie 1
bidiv 2
bidon 4
biech 1
bieco 5
bielo 1
bienn 1
bient 2
biera 2
biere 6
bieto 2
biett 13
biezi 2
bifol 2
bigli 25
bigot 2
bigui 2
bikin 1
bilan 3
bilen 2
bilia 11
bilic 3
bilir 1
bilit 23
biliz 5
bilme 11
bimba 2
bimbi 1
bimbo 2
binan 1
binar 4
binas 1
binat 3
binaz 2
binet 4
binie 4
binoc 1
binso 28
biogr 5
biond 12
bione 3
bioso 3
bioti 1
biott 2
birci 12
biril 1
birin 5
birlo 1
birma 1
biroc 1
birra 3
birri 8
birro 3
birsi 1
bisac 2
bisbi 5
bisce 1
bisco 3
bisog 114
bisse 1
bissi 2
bisso 1
biste 1
bistr 1
bitac 3
bital 1
bitan 4
bitar 4
bitat 6
bitav 7
bitaz 2
bitch 2
bitin 1
bitra 1
bitro 3
bitte 1
bitua 12
bitud 8
biula 1
bivac 1
bivan 1
bivio 1
bizio 3
bizza 5
bjank 4
black 2
blafa 1
blana 2
bland 5
blare 1
blate 1
blatt 2
bleah 1
blema 32
blemi 28
blend 1
bless 1
blica 16
blich 2
blici 6
blico 20
bliga 3
blime 1
blind 2
bliot 1
blitz 1
blocc 17
bluff 1
blusa 1
boant 2
boati 1
bocca 71
bocce 5
bocch 11
bocci 7
bocco 4
bocit 1
bocro 1
bodor 1
bodyg 1
bofil 5
bofon 5
bogad 2
boleg 1
bolid 1
bolis 1
boliz 1
bolla 3
bolle 6
bolli 5
bolog 107
bolon 3
bolsc 6
bolsi 1
bolza 1
bomba 25
bombe 18
bombi 4
bombo 4
bonam 5
bonat 1
bonda 6
bondi 2
bondo 9
bondu 39
bongi 2
bonor 4
boooo 2
borar 3
borat 3
borav 1
boraz 5
borba 1
borbo 3
borda 2
borde 6
bordi 2
bordo 17
borga 1
borgh 8
borgo 3
boria 1
borio 1
boron 2
borsa 14
borse 2
borto 23
bosca 4
bosch 2
bosco 4
bosni 2
bosso 1
botag 2
botom 3
botta 13
botte 15
botti 12
botto 85
bourb 2
bovin 1
bowle 1
bozza 2
bozzo 2
bracc 110
brace 2
brado 2
braga 1
bragh 2
brain 1
braio 10
brait 3
brama 1
brame 1
brana 2
branc 5
brand 57
brano 7
brant 3
branz 1
brare 9
brars 1
brarv 2
brata 2
brate 3
brato 7
brats 1
bratt 3
braun 1
brava 64
brave 3
bravi 6
bravo 23
bravu 1
brazi 3
bregg 1
brell 1
brere 1
breri 2
brese 1
breta 1
brete 1
breto 1
brett 6
breve 4
brevi 6
brews 1
brezz 5
briac 6
brian 1
brica 7
brich 5
brici 9
brico 1
bride 3
brifi 1
briga 28
brigh 2
brigl 2
brill 18
brind 5
brini 1
briol 3
brion 2
brisa 1
brisc 3
brist 15
brita 18
briti 1
brivi 14
brizi 2
brizz 2
brocc 1
broda 1
brodi 1
brodo 3
broga 1
brogl 2
brogu 1
bronc 5
brone 1
bront 1
bronz 7
brook 3
broth 1
brott 1
brovn 22
browd 2
brown 26
bruci 20
bruli 1
brull 1
bruna 1
bruni 1
brusc 3
brusi 5
brust 3
brutt 39
bruzz 2
bsolu 1
bucar 1
bucat 1
bucav 2
bucce 1
bucci 1
buche 2
buchi 6
bucki 4
buddh 1
budel 6
budge 3
budla 1
budri 1
buend 1
bueno 1
buent 2
bufal 1
buffa 11
buffe 1
buffo 4
bugia 6
bugie 7
bugli 1
build 1
buino 1
buire 1
buito 2
buiva 3
bukha 1
bulan 1
bular 1
bulat 8
bulga 7
bulli 1
bulls 1
bulow 2
bunal 5
bunse 1
buona 54
buone 14
buong 6
buoni 13
buono 33
buran 7
burat 3
burbe 1
burea 8
burel 1
burgh 1
burla 1
burle 2
burns 1
buroc 3
burra 1
burro 1
burto 1
busar 1
busca 1
busin 3
busiv 1
bussa 2
busse 1
busso 2
busta 5
buste 1
busti 3
busto 12
butat 2
butic 1
butta 41
butti 5
butto 6
buzio 1
buzza 1
buzzu 1
cabar 1
cabil 10
cabin 2
cabra 4
cabri 3
cabro 1
cacar 1
cacas 1
cacat 1
cacaz 1
cacch 2
cacci 42
cacco 1
cache 1
cacia 3
cactu 1
cadav 9
cadde 8
cadem 2
caden 11
cader 7
cades 1
cadev 5
cadon 4
cadra 1
cadre 1
caduc 1
cadut 21
cafat 1
caffa 1
caffe 3
cafis 1
cafon 4
cagan 1
cagar 9
cagat 1
cagav 1
cagio 1
cagli 9
cagna 3
cagne 1
cagno 1
caina 3
calab 2
calag 2
calam 2
calan 3
calar 2
calas 1
calat 4
calca 6
calce 4
calch 1
calci 38
calco 5
calcu 3
calda 21
calde 3
caldi 3
caldo 21
calen 1
calet 1
calfi 1
calic 2
calie 1
calif 9
calin 1
calis 1
caliz 2
calla 1
calli 3
callo 1
calma 31
calmi 1
calmo 9
calog 2
calor 3
calpe 2
calpi 2
calpo 2
calta 1
caltr 2
calva 2
calvo 1
calza 6
calze 6
calzi 6
calzo 7
camal 2
camar 1
camat 2
cambi 105
camen 8
camer 37
camic 29
camin 7
camio 81
camma 6
camme 2
cammi 53
camor 1
campa 34
campe 3
campi 23
campo 19
camuf 2
canad 5
canal 6
cance 14
canch 1
cancr 2
canda 9
cande 13
candi 7
cando 39
canen 1
canes 1
canev 1
cangi 1
cania 43
canic 2
canin 1
canir 1
canis 7
canna 14
canne 10
canno 6
canon 1
canos 2
canot 5
cansi 1
canta 15
cante 16
canti 35
canto 22
cantr 1
canza 7
canze 1
canzo 4
capac 22
capan 17
capat 1
capel 31
capem 12
capen 1
capes 1
capia 1
capil 1
capir 60
capis 50
capit 233
capiv 14
capoc 1
capod 1
capof 4
capol 10
capon 1
capor 1
capot 1
capov 2
capoz 1
cappa 18
cappe 27
cappi 1
cappo 122
cappu 1
capra 1
capre 4
capri 4
capta 2
capuc 1
carab 8
carac 3
caraf 1
carai 1
caram 7
carat 19
carbo 4
carbu 8
carca 2
carce 7
carci 2
cardi 3
cardo 1
caren 2
caret 1
carez 14
cargo 1
caric 106
carin 3
cario 3
caris 1
carit 7
carla 3
carle 1
carli 32
carlo 21
carls 1
carme 1
carmi 14
carna 1
carne 9
carni 1
carog 6
caron 14
caros 1
carot 5
carov 1
carpa 7
carpe 33
carpi 3
carpo 1
carra 1
carre 11
carri 19
carro 6
carru 1
carsa 2
carse 1
carsi 22
carso 1
carta 19
carte 47
carth 28
carti 6
carto 8
carus 6
carvi 1
caryg 2
casan 2
casar 1
casat 2
casca 4
casci 1
casel 2
caser 6
casic 2
casin 39
casio 28
casmo 4
casoi 3
casot 1
caspi 1
cassa 30
casse 27
cassi 5
casso 12
casta 1
caste 11
casti 6
castr 16
casua 2
cataf 2
catal 1
catam 2
catar 2
catch 2
categ 5
caten 10
catin 4
cativ 1
catol 9
cator 29
catos 1
catri 5
catta 16
catti 20
catto 14
cattu 10
catur 5
cauca 6
causa 19
cause 1
caust 1
caute 4
cauti 1
cauto 1
cauzi 6
caval 48
cavam 1
cavan 26
cavar 5
cavat 7
cavav 3
caver 3
cavez 1
cavia 1
cavic 10
cavig 3
cavit 1
cavol 1
cavou 1
cazio 21
cazza 29
cazzi 5
cazzo 85
ccabi 6
ccada 1
ccadd 4
ccade 4
ccafi 1
ccalc 2
ccama 1
ccame 2
ccand 4
ccane 1
ccani 6
ccann 1
ccano 8
ccant 23
ccapa 1
ccapo 2
ccapp 1
ccapr 1
ccara 1
ccarc 1
ccard 1
ccare 35
ccarl 5
ccaro 3
ccars 3
ccart 32
ccasa 1
ccasc 1
ccasi 28
ccass 1
ccata 27
ccate 10
ccati 8
ccato 41
ccatr 1
ccatt 2
ccatu 4
ccava 27
cceca 1
cceda 1
ccede 34
ccedo 3
ccele 4
ccell 5
ccend 26
ccenn 16
ccent 21
ccepi 1
ccerc 2
ccere 2
cceri 2
ccert 1
ccesa 2
ccese 23
ccesi 2
cceso 8
ccess 78
ccete 5
ccett 35
ccezi 10
ccheg 2
cchei 2
ccher 10
cches 5
cchet 40
cchez 4
cchia 156
cchie 92
cchim 1
cchin 78
cchio 192
cchir 1
cchis 1
cchit 3
cchiu 8
cciai 6
ccial 1
cciam 28
ccian 15
cciar 25
ccias 1
cciat 46
cciav 8
ccica 4
ccico 1
ccide 27
ccidi 1
ccido 1
ccigl 20
ccina 2
ccine 1
ccing 1
ccino 5
cciol 14
ccion 61
ccios 5
cciot 9
cciri 2
ccisa 1
ccise 2
ccisi 3
cciso 8
ccita 9
cciuf 2
ccocc 1
ccoci 3
ccogl 15
ccola 30
ccole 13
ccolg 1
ccoli 17
ccolo 40
ccolp 1
ccols 18
ccolt 12
ccoma 5
ccome 14
ccomi 4
ccomo 4
ccomp 32
ccomu 3
ccone 10
cconi 8
ccont 85
ccopp 6
ccora 1
ccorc 2
ccord 54
ccorg 10
ccorr 11
ccors 11
ccort 5
ccost 7
ccoti 1
ccova 2
ccovi 1
ccudi 2
ccuin 8
ccull 1
ccult 1
ccumu 3
ccupa 57
ccupo 1
ccura 2
ccusa 22
ccuse 13
ccuss 7
ceali 1
ceani 1
ceano 5
ceber 1
cecan 1
cecch 2
cecom 1
cecos 3
ceden 14
ceder 27
cedes 1
cedet 2
cedev 11
cedia 1
cedim 2
cedit 1
cedon 4
cedut 4
ceeee 1
ceffo 2
cegli 19
celas 1
celat 2
celba 14
celeb 6
celer 16
celes 2
celgo 1
celib 3
celje 1
cella 21
celle 5
celli 1
cello 11
celse 8
celta 15
celte 5
celti 2
celto 11
ceman 1
cemar 1
cembr 6
cemen 45
cemet 2
cemin 1
cemmo 1
cempi 1
cenar 2
cenat 1
cenci 1
cenda 5
cende 49
cendi 16
cendo 47
ceneg 7
cener 7
cenic 3
cenna 10
cenni 5
cenno 33
cente 26
centi 49
cento 89
centr 67
centu 4
cenza 29
cenze 4
cenzi 1
cenzo 10
cepir 2
cepit 1
cerai 1
ceram 1
ceran 1
cerar 1
cerat 7
ceraz 1
cerbi 1
cerbo 2
cerca 117
cerch 13
cerci 1
cerco 8
cerdo 3
cereb 3
cerei 2
ceret 2
cergl 1
ceria 5
cerie 2
cerim 7
cerit 1
cerla 1
cerle 1
cerlo 7
cermi 3
cerne 1
cerni 2
cerpa 1
cerra 1
cerri 1
cersi 1
certa 14
certe 17
certi 11
certo 126
cerve 26
cervi 3
cervo 3
cesar 2
cesco 3
ceseg 1
ceser 4
cesim 2
cespi 3
cespu 7
cessa 24
cesse 27
cessi 29
cesso 79
cesto 2
cestr 2
ceter 5
cetta 30
cette 4
cetti 6
cetto 10
ceuti 1
cevam 2
cevan 45
cevat 1
ceven 1
cever 4
cevet 3
cevev 1
cevic 5
cevim 2
cevis 1
cevit 5
cevol 7
cevut 8
cezio 11
cguff 34
chade 1
chakr 1
chala 1
champ 4
chand 1
chant 1
chape 1
chapl 3
chard 2
charl 35
chate 1
chauf 1
chcoc 17
checc 2
cheda 4
chede 1
chedi 7
cheek 1
chegg 17
chele 3
cheli 1
chemi 7
chera 6
chere 10
cheri 7
cherm 28
chero 3
chers 1
cherz 16
chese 6
chess 2
chest 15
chete 1
chett 66
chevo 2
chezz 7
chiac 27
chiaf 28
chiag 1
chiai 3
chial 21
chiam 138
chian 5
chiap 4
chiar 104
chias 2
chiat 86
chiav 32
chiaz 1
chiba 6
chica 3
chicc 4
chico 2
chidd 1
chide 3
chied 94
chieg 1
chiel 5
chien 29
chier 56
chies 103
chiet 11
chifa 2
chiff 1
chifo 17
chigi 1
chigl 2
chile 2
chili 18
chill 14
chilo 23
chime 2
chimi 5
china 54
chinc 1
chine 8
ching 2
chini 8
chino 32
chins 1
chioc 7
chiod 9