-total 287311
aaaaa 1
aaaan 1
aaaar 1
aaaro 1
aarle 14
aaron 4
abacc 3
aball 5
abant 1
abapt 1
abard 4
abari 1
abate 2
abati 2
abato 1
abatt 113
abazi 1
abbag 1
abbai 4
abban 75
abbar 3
abbas 41
abbat 14
abbaz 1
abbia 236
abbie 6
abbig 2
abbio 6
abbon 2
abbor 1
abboz 2
abbra 54
abbri 11
abbro 12
abbru 1
abbuf 3
abbui 1
abdic 1
abela 1
abele 1
abell 8
abemu 2
abene 12
abern 1
abesc 5
abete 1
abeth 1
abett 1
abibb 2
abile 117
abili 90
abilm 24
abilo 5
abina 6
abine 1
abiri 11
abiss 8
abita 26
abiti 8
abito 5
abitu 27
abocc 4
abola 1
aboli 16
abomi 1
abond 13
abora 3
abord 5
abori 1
aborr 1
abota 2
abric 3
abruz 1
absid 2
abuia 1
abula 1
abuli 1
abuzz 1
acabi 3
acabr 5
acall 3
acami 1
acann 4
acant 1
acare 4
acarm 1
acarn 1
acarr 1
acass 1
acate 1
acato 5
acava 1
accab 5
accad 42
accag 1
accai 2
accal 10
accam 13
accan 35
accap 3
accar 30
accas 13
accat 39
accav 5
accec 2
acced 6
accel 6
accen 60
accer 9
acces 18
accet 40
acche 38
acchi 90
accia 422
accic 1
accid 3
accig 12
accin 21
accio 153
acciu 1
accla 4
accoc 3
accog 89
accol 69
accom 79
accon 94
accor 98
accos 13
accov 2
accre 1
accuc 5
accui 5
accum 10
accur 1
accus 36
acell 9
acels 1
aceme 1
acemm 1
acend 27
aceni 1
acent 4
acenz 2
acera 4
acerd 1
acere 32
acerg 2
aceri 4
acero 1
acerr 4
acess 10
acest 1
aceva 24
acevo 10
acher 1
achse 5
aciam 2
acian 9
aciar 2
aciat 3
acida 1
acide 1
acidi 2
acido 2
acier 2
acifi 9
acigl 4
acign 1
acile 34
acili 9
acill 7
acilm 13
acime 5
acimo 1
acina 2
acino 2
acinq 12
acism 1
acito 1
aciul 1
aciut 13
acker 1
aclis 1
acola 8
acoli 12
acoll 5
acolo 19
acolt 3
acomb 2
acomo 4
acond 3
acone 4
aconi 6
acono 1
acont 1
acopo 5
acota 1
acqua 95
acque 9
acqui 25
acquo 1
acram 8
acran 2
acrar 5
acrat 5
acrau 1
acrif 6
acril 1
acrim 11
acros 3
acuis 1
acume 3
acumi 5
acust 1
acuta 2
acute 2
acuti 2
acuto 7
adacc 1
adagi 4
adagn 27
adalb 5
adama 5
adami 1
adamo 4
adand 1
adano 7
adare 3
adate 1
adato 1
adatt 11
adave 22
adavo 1
adden 4
addes 8
addet 2
addic 2
addio 2
addir 10
addis 1
addit 5
addiv 1
addob 1
addom 1
addop 3
addor 2
addos 34
addot 1
addov 3
addri 1
adduc 1
adegu 8
adell 2
ademi 2
ademp 7
adend 8
adent 2
adenz 2
adept 3
adera 1
adere 33
adesi 2
adess 152
adett 1
adeva 1
adevo 1
adiam 2
adian 2
adica 9
adici 7
adida 1
adido 1
adigl 5
adigm 1
adili 2
adime 10
adina 26
adine 8
adini 111
adino 35
adira 2
adire 6
adirl 1
adirm 3
adiro 1
adirs 1
adirt 3
adisc 8
adiso 7
adite 1
aditi 2
adito 12
adizi 3
adocc 2
adone 1
adonn 7
adono 10
adope 1
adora 3
adore 1
adori 1
adorn 1
adoss 4
adott 7
adova 12
adozi 1
adran 4
adrat 4
adreb 4
adren 1
adria 27
adril 1
adron 48
adrup 2
adual 1
aduce 2
adula 1
adult 7
aduna 19
adunc 1
aduno 1
adura 3
adurl 1
adurr 2
aduta 7
aduti 4
aduto 10
adutt 1
aduzi 3
aegid 2
aelit 1
aerts 1
aesag 3
aesam 2
aesat 1
aesel 1
aesin 1
aesto 2
aestr 32
aesun 1
aetan 2
aetta 7
afela 2
afemm 1
aferm 3
affab 2
affac 10
affal 2
affam 8
affan 8
affar 111
affas 12
affat 26
affeg 3
affer 54
affet 8
affez 2
affia 20
affic 20
affid 37
affie 1
affig 6
affil 10
affin 41
affio 3
affis 9
affli 5
afflu 14
affog 6
affol 22
affon 14
affor 6
affra 3
affre 27
affro 19
affum 2
affus 1
afica 1
afico 3
afigg 2
afitt 1
afori 1
afort 10
afott 1
afras 1
afric 2
agabb 1
agabo 9
agagl 12
agame 3
agana 1
agand 3
agane 1
agani 1
agano 6
agarb 1
agare 26
agarg 1
agari 13
agarl 1
agarm 2
agars 2
agasc 3
agass 2
agata 3
agati 6
agato 13
agava 1
agazz 103
agdeb 1
agedi 3
agell 1
agent 23
agenz 14
agera 1
agero 2
agevo 4
aggan 3
agger 11
agget 1
aggez 10
agghi 3
aggia 70
aggin 3
aggio 262
aggir 23
aggiu 140
aggom 1
aggon 3
aggra 7
aggre 3
aggro 4
aggru 1
aggua 10
aggue 2
aghda 1
agheg 1
agher 3
aghet 4
aghia 1
agian 2
agiat 5
agica 3
agich 1
agici 2
agico 3
agile 3
agili 3
agina 46
agine 19
agini 16
agino 14
agion 71
agire 15
agisc 4
agist 147
agita 28
agito 1
agitt 2
aglia 206
aglie 25
aglio 56
agnac 13
agnai 1
agnam 1
agnan 19
agnar 14
agnat 23
agnav 1
agnel 1
agner 4
agnes 1
agnet 3
agnia 20
agnie 1
agnif 8
agnin 1
agnol 33
agnot 1
agnuc 4
agnum 1
agnuo 2
agnus 1
agogh 2
agogn 1
agola 7
agole 5
agoma 10
agome 10
agona 4
agoni 8
agonz 8
agore 6
agorg 1
agoro 3
agost 25
agott 6
agram 1
agrar 2
agrat 2
agraz 1
agrer 1
agrez 1
aguar 2
agula 1
aguna 9
agura 5
agusa 2
aguzz 1
ahilo 1
aiale 6
aiali 7
aiamo 1
aiare 3
aiars 1
aiata 2
aiate 3
aiato 7
aiche 1
ainat 4
ainic 1
ainte 3
aiole 1
aioli 4
aiolo 8
aiono 11
airol 1
airon 1
aismo 6
aista 1
aitan 3
aitar 2
aiuta 26
aiute 3
aiuto 39
aizza 5
alaba 4
aladi 8
alama 5
alame 1
alanc 18
aland 7
alang 3
alano 3
alant 2
alape 3
alarc 1
alare 5
alari 2
alarn 1
alaro 1
alasc 3
alass 1
alata 4
alate 1
alati 10
alato 21
alatt 5
alaus 2
alavo 2
alazi 2
alazz 35
alber 48
albet 4
albre 2
alcag 1
alcal 5
alcan 11
alcap 1
alcar 4
alcat 2
alcav 1
alcel 2
alcet 1
alche 140
alchi 9
alcia 5
alcio 11
alcit 2
alcol 8
alcon 7
alcos 136
alcun 242
aldac 2
aldan 3
aldar 15
aldat 5
aldec 56
aldel 1
alder 3
aldes 1
aldez 1
aldia 1
aldic 2
aldor 1
aldra 1
alede 15
aledi 4
alefi 1
alegg 1
alegn 9
aleja 1
alemm 16
alena 2
alend 9
aleno 3
alent 1
aleod 5
alera 4
alere 8
alers 1
alesa 4
alesc 3
alesi 1
aless 2
alest 6
alett 12
aleva 2
alezz 3
alfer 4
alfie 3
alfin 1
alfir 1
alfon 1
alfre 2
alger 1
algon 8
algos 1
algra 1
aliam 6
alian 29
alias 10
alibr 4
alica 1
alich 1
alici 1
alico 1
alida 1
alido 1
alied 12
alien 1
alier 36
align 1
alila 1
alime 5
alina 7
alino 4
alire 15
alirm 1
aliro 1
alisc 6
alisi 1
aliss 28
alist 1
alita 3
alite 1
aliti 1
alito 11
alitt 1
aliva 7
aliza 1
alizi 3
alizz 22
alken 5
allac 5
allag 1
allam 1
allan 6
allar 37
allat 5
allaz 1
allea 36
alleg 13
allel 2
allem 4
allen 20
aller 8
alles 6
allet 4
allev 9
allib 4
allid 11
allie 14
allig 2
allim 2
allin 9
allir 1
allit 7
alloc 1
allog 6
allon 33
allop 1
allor 110
allos 1
allot 4
allst 18
alluc 5
allud 3
allun 27
allus 5
alman 1
almar 1
almas 1
almat 4
almaz 2
almen 134
almes 1
almin 1
almud 2
aloga 2
alogh 1
alogi 1
alogn 1
alogo 6
alomo 1
alone 8
aloni 1
alopp 8
alora 6
alord 2
alore 11
aloro 4
alosa 1
aloso 2
alott 5
alpab 1
alpam 1
alpar 1
alpat 2
alpeb 3
alpel 3
alpes 5
alpia 1
alpic 1
alpin 3
alpit 5
alpor 2
alqua 1
alsat 1
alsaz 2
alsed 1
alser 1
alsia 15
alsic 4
alsif 3
alsit 1
altai 1
altam 1
altan 9
altar 16
altat 10
altav 2
altel 7
alter 11
altez 15
altha 12
altia 1
altic 2
altim 7
altis 17
altol 5
altra 103
altre 66
altri 153
altro 258
altru 2
altua 1
altur 1
aluar 1
alubr 1
alude 6
aludi 3
aludo 2
alugi 1
alumo 1
alunq 21
aluta 35
alute 12
aluti 6
aluto 15
alvac 3
alvad 2
alvag 9
alval 1
alvan 1
alvar 9
alvat 18
alveo 1
alver 2
alvez 12
alvif 1
alvin 38
alviv 1
alvol 1
alzan 19
alzar 37
alzat 28
alzav 5
alzel 1
alzer 3
alzia 2
alzol 2
alzon 1
amabi 3
amaio 5
amamm 1
amand 3
amano 29
amant 5
amara 3
amarc 2
amare 27
amarg 1
amarl 3
amarm 3
amarn 1
amaro 1
amars 3
amart 3
amasc 1
amass 1
amata 8
amate 4
amati 9
amato 24
amatt 2
amava 10
amazi 4
amazz 3
ambas 7
ambed 1
amber 20
ambet 1
ambia 49
ambie 8
ambig 9
ambin 68
ambio 36
ambir 1
ambis 2
ambit 2
ambiz 6
ambra 2
ambro 2
ambul 3
ambur 8
ambus 13
amele 1
ameli 1
amena 4
amene 3
ament 491
amera 9
amerd 3
amere 5
ameri 2
amest 1
ametr 1
amiam 4
amica 4
amici 80
amico 81
amide 2
amifi 1
amige 1
amigi 1
amigl 67
amigo 1
amila 4
amilc 1
amili 2
amill 2
amina 8
amini 14
amino 17
amite 3
ammae 2
ammal 3
amman 1
ammar 3
ammas 5
ammat 7
ammaz 30
ammeg 4
ammel 4
ammen 7
ammes 3
ammet 4
ammez 1
ammic 1
ammin 66
ammir 22
ammob 2
ammol 2
ammon 2
ammuc 4
ammuf 3
ammut 3
amoci 5
amogl 3
amola 2
amoli 2
amolo 2
amone 2
amont 17
amora 3
amore 21
amort 2
amosa 1
amosi 3
amoso 6
amoss 1
amovi 1
ampad 2
ampag 35
ampai 1
ampal 3
ampam 8
ampan 39
ampar 16
ampat 57
ampav 3
ampeg 18
ampen 1
amper 21
ampia 6
ampic 8
ampie 5
ampio 7
ample 1
ampog 1
ampol 4
ampon 1
ampos 2
amsdo 5
amste 22
amuel 3
amuff 1
amuta 1
anaan 1
anaba 112
anabi 1
anacc 1
anada 1
anagg 1
anagl 7
anaio 2
anale 32
anali 13
aname 3
anamm 1
anand 2
anano 4
ananz 5
anapa 1
anare 11
anari 3
anarl 3
anarn 1
anaro 2
anars 2
anart 2
anarv 1
anata 6
anate 5
anati 12
anato 9
anbul 1
ancab 6
ancan 11
ancar 24
ancas 3
ancat 26
ancav 5
ancel 25
ancer 1
ances 51
anche 415
anchi 69
ancia 101
ancin 3
ancio 12
ancir 2
ancis 7
ancit 4
anciu 8
ancof 1
ancol 6
ancon 11
ancor 345
ancre 2
ancul 7
andai 2
andal 15
andan 25
andar 98
andas 9
andat 61
andav 13
andaz 4
andeb 1
andel 21
andem 1
anden 1
ander 10
andes 48
andez 9
andia 24
andib 1
andid 5
andie 13
andin 2
andio 11
andir 9
andis 41
andit 10
andiv 1
andoc 19
andog 9
andol 25
andom 31
andon 70
andos 29
andra 12
andre 11
andri 4
andro 3
anduc 1
aneam 5
anedd 5
anegg 6
aneit 1
anelf 18
anell 16
anemm 1
anend 2
anenz 2
anere 17
anern 1
anesc 1
anese 2
anesi 3
anest 1
anett 2
aneva 3
anevo 1
anfor 1
anfra 9
anfru 1
angan 1
angar 1
angel 38
angen 11
anger 11
anget 2
angev 3
anghe 6
anghi 2
angia 45
angib 3
angio 1
angol 39
angon 9
angor 3
angos 13
angra 12
angua 2
angue 79
angui 12
angus 4
aniam 9
anian 1
aniat 2
anica 7
anich 4
anici 6
anico 19
anicu 1
aniel 1
anien 1
anier 33
anifa 5
anife 10
anifi 4
anile 13
anili 8
anima 40
anime 7
animi 20
animo 16
anini 15
anipo 12
anire 1
anirs 1
anisc 14
anism 8
aniss 11
anist 1
aniti 2
anito 1
anizz 21
anken 24
anmar 5
annac 1
annai 3
annal 1
annam 1
annan 3
annar 9
annas 1
annat 18
annav 2
annaz 1
anneb 6
anneg 4
annel 10
annem 1
anner 2
annes 16
annet 7
annia 2
annic 2
annid 6
annie 9
annit 1
annod 1
annoi 3
annom 2
annon 40
annos 2
annot 9
annov 4
annua 2
annue 1
annui 67
annul 4
annun 31
annus 7
anoma 1
anone 5
anoni 11
anopu 1
anosc 2
anott 3
anova 1
anove 3
anovr 10
anpie 24
anqui 20
ansel 12
ansen 1
anset 2
ansfe 11
ansfu 1
ansga 2
ansia 9
ansig 6
ansim 4
ansio 8
ansit 4
anson 35
ansus 1
antac 11
antad 3
antag 18
antai 1
antal 2
antam 3
antan 15
antaq 1
antar 16
antas 34
antat 19
antav 2
antel 22
antem 2
anten 25
anter 13
antes 11
antic 42
antid 1
antie 10
antil 17
antin 23
antip 1
antiq 1
antir 6
antis 17
antit 27
antiv 1
antol 6
antom 14
anton 62
antot 1
antov 17
antro 1
antua 2
antuf 1
antum 1
antun 5
anual 1
anufa 2
anura 4
anure 1
anusi 2
anuto 1
anuzi 4
anver 71
anzal 5
anzan 7
anzar 8
anzat 5
anzav 1
anzia 37
anzic 8
anzie 4
anzio 1
anzit 1
anzon 9
aolin 1
aomet 2
aonaz 6
aordi 6
aotic 1
apabi 1
apace 19
apaci 20
apale 9
apali 3
apall 1
apann 15
aparb 2
apass 2
apato 1
apela 4
apeli 1
apell 46
apelo 2
apena 3
apend 2
apere 47
aperl 6
apern 1
apers 1
apert 75
apess 3
apete 22
apett 1
apeva 19
apevi 3
apevo 31
apezz 3
aphys 1
apice 1
apida 16
apide 5
apidi 9
apido 7
apied 2
apien 14
apiet 1
apifa 1
apigl 1
apime 4
apimm 3
apina 2
apira 2
apirc 1
apire 58
apirl 4
apisc 32
apiss 3
apist 23
apita 102
apite 2
apiti 2
apito 194
apivo 1
apoca 28
apoda 1
apode 1
apofi 4
apola 2
apole 2
apoli 11
apoll 1
apone 2
apopo 1
apora 3
apore 5
apori 4
aporo 1
aport 1
apost 41
apote 3
apovo 2
appag 2
appai 4
appam 1
appan 9
appar 72
appas 2
appat 24
appav 4
appeg 1
appel 29
appen 100
apper 8
appes 17
appet 6
appez 1
appia 28
appic 5
appig 3
appin 1
appio 1
appit 1
appla 8
appog 42
appol 11
appon 15
appor 10
appos 8
appre 86
appri 1
appro 43
appuc 15
appun 37
appur 2
aprai 3
apran 6
apreb 3
aprei 5
aprem 2
apren 13
apres 6
apret 5
aprib 1
aprii 1
april 26
aprio 1
aprir 22
apris 1
aprit 4
apriv 2
apron 14
aptar 1
aptis 1
apult 1
aputa 2
aputo 25
aquat 1
aquil 4
araba 1
arabe 3
arabi 7
arabo 2
araca 1
aracc 6
arace 2
araco 4
aradi 8
arado 4
arafa 171
araff 1
arafr 1
aragl 2
arago 5
arald 2
arali 6
arall 2
arame 10
arand 7
arang 1
arann 44
arano 13
arant 50
aranz 4
araon 1
arape 1
ararc 1
arare 25
ararg 1
araro 1
arars 4
arart 1
arasm 2
arass 3
arata 2
arate 22
arati 12
arato 24
aratr 4
aratt 13
arava 4
arave 2
arazi 2
arazz 18
arbar 8
arbet 1
arbia 1
arbic 3
arbie 1
arbit 3
arbon 4
arbug 1
arbur 1
arcai 6
arcan 7
arcar 4
arcas 9
arcat 14
arcav 1
arcaz 19
arcel 6
arcen 2
arcer 20
arche 11
archi 77
arcia 31
arcie 1
arcim 1
arcio 7
arcir 2
arcis 3
arciu 1
arciv 10
arcob 1
arcol 6
arcon 6
ardam 1
ardan 21
ardar 49
ardat 18
ardav 3
ardel 4
arden 3
arder 8
ardes 1
ardia 34
ardie 17
ardin 95
ardio 1
ardir 2
ardit 29
ardon 1
ardor 3
ardos 1
arduo 1
arebb 115
arecc 16
aregg 2
arell 4
areme 1
aremm 8
aremo 22
arena 4
arend 3
arene 1
areni 1
arent 6
arenz 3
arera 1
arere 18
arese 6
aresi 4
arest 10
arete 22
areti 15
areva 2
arezz 14
arfal 1
argam 1
argan 4
argar 4
argat 2
argen 16
argha 1
arghe 6
arghi 9
argia 1
argil 3
argim 2
argin 21
argir 1
argiz 1
argli 43
argol 1
argom 9
argui 2
arguz 1
ariam 4
arian 1
arias 2
ariat 3
arica 30
arice 1
arich 17
arici 1
arico 48
arida 1
arido 1
ariet 7
ariff 2
arigi 2
arile 4
arili 8
arime 1
arina 14
arine 1
aring 2
arini 6
ariop 3
arios 2
aripa 1
arire 17
arirm 1
arisc 6
arism 2
ariss 2
arist 11
arita 2
arite 1
ariti 5
arito 26
aritt 2
ariva 3
arizi 2
arlam 2
arlan 30
arlar 87
arlas 3
arlat 43
arlav 7
arlem 14
arler 7
arlia 4
arlos 29
arlot 6
arlum 1
armad 1
armag 1
armai 3
arman 2
armar 6
armat 62
armel 2
armen 12
armia 10
armig 1
armin 1
armio 2
armis 1
armon 2
arnab 1
arnag 1
arnal 1
arnat 1
arnef 1
arnes 18
arnev 13
arnhe 2
arnit 3
arnos 1
arnut 1
aroba 1
arogn 3
arola 97
arole 141
aroli 3
aroma 4
aromi 2
aronn 1
arono 55
arore 3
arori 1
arott 1
arpag 1
arpen 4
arpio 3
arpir 1
arpon 2
arrai 1
arram 7
arran 14
arrar 1
arrat 7
arraz 1
arreb 2
arrec 1
arrem 1
arres 23
arret 14
arric 36
arrie 6
arrin 3
arrit 4
arriv 154
arroc 14
arrog 11
arros 11
arrot 6
arrov 3
arroz 8
arruf 1
arrug 1
arruo 1
arsch 5
arsel 4
arsen 19
arsia 5
arsim 2
arsur 1
artam 2
artan 1
artat 1
artec 14
arted 2
artef 2
artel 13
arten 21
arter 1
artho 4
artia 4
artic 63
artie 10
artif 2
artig 27
artim 1
artin 28
artir 33
artis 5
artit 44
artiz 1
artog 1
artol 8
arton 4
artor 11
artzf 1
arvel 1
arven 1
arver 1
arzel 1
arzia 1
arzon 2
arztr 1
asacc 3
asale 1
asali 5
asant 1
asata 2
asate 2
asati 2
asato 2
asbor 1
asbur 51
ascan 1
ascat 1
ascel 8
ascen 5
ascer 24
asces 5
asche 15
aschi 12
ascia 246
ascic 4
ascin 79
ascio 35
ascit 5
asciu 11
asciv 2
ascol 63
ascon 29
ascor 23
ascos 26
ascri 1
ascun 18
ascur 4
asegg 2
asell 1
asent 3
asera 4
asfem 4
asfer 8
asfor 30
asiat 1
asile 22
asili 3
asilo 2
asima 2
asimo 1
asini 1
asino 3
asion 25
asiva 1
asman 1
asmet 3
asogn 1
asoio 4
asola 1
asoli 2
asolo 1
asoni 2
asott 1
aspai 1
aspar 2
asper 4
aspet 144
aspir 8
aspor 20
aspra 2
aspro 1
asqua 12
assac 23
assaf 5
assag 36
assai 10
assal 21
assam 1
assan 24
assap 4
assar 38
assas 16
assat 64
assav 4
assaz 1
assec 5
assed 14
assef 1
asseg 34
assel 2
assem 3
assen 16
asser 76
asset 6
assia 16
assib 4
assic 46
assid 3
assie 10
assim 22
assin 17
assio 12
assis 19
assit 3
assiv 2
assoc 6
assoi 4
assol 26
assom 1
asson 33
assor 3
assos 1
assot 2
assua 1
assum 11
assun 1
assur 12
astag 1
astal 2
astan 30
astar 52
astas 3
astat 16
astav 2
astaz 2
astel 23
aster 24
astia 22
astic 25
astid 5
astie 3
astig 10
astim 3
astin 2
astio 6
astit 4
astol 1
aston 28
astor 19
astra 18
astre 3
astri 25
astro 57
astul 2
astuo 2
astut 5
astuz 5
astwi 1
asual 4
asuda 1
asupo 1
asver 1
atacc 4
ataci 2
atacl 1
ataco 2
atagl 2
atale 10
atali 1
atalo 1
atame 21
atami 1
atana 6
atani 2
atano 1
atapu 1
atare 1
atari 1
atarm 1
atarr 1
atast 11
atata 27
atate 1
atato 1
ateal 4
atech 1
ateci 4
atega 1
ategi 19
ategl 2
atego 1
atela 2
atele 2
ateli 3
atell 222
atelo 5
atemi 10
atemp 2
atena 30
atenb 14
atene 9
atera 6
ateri 14
atern 8
atero 1
aterr 4
atett 1
ateve 2
atevi 18
atevo 1
atezz 9
athan 2
athar 1
athed 1
athia 4
athle 21
atibi 2
atibo 6
atica 60
aticc 1
atice 1
atich 12
atici 14
atico 21
atifi 3
atild 1
atime 1
atimi 2
atina 2
atini 3
atino 39
ation 1
atiro 1
atisb 3
atisi 2
atism 1
atiss 6
atita 1
atito 1
atitu 1
ativa 10
ative 19
ativi 7
ativo 8
atizz 10
atlet 1
atmos 1
atoci 1
atogl 2
atoia 2
atoio 7
atola 6
atole 1
atoli 2
atomb 1
atomi 5
atore 275
atori 134
atosi 1
atovi 1
atral 2
atrar 1
atres 3
atria 11
atrib 3
atric 60
atrim 19
atrin 4
atrio 1
atriz 12
atroc 2
attab 1
attac 56
attag 56
attai 2
attam 13
attan 14
attar 33
attas 1
attat 43
attav 8
attaz 2
atted 28
atteg 6
attel 5
attem 7
atten 163
atteo 1
atter 81
attes 79
attev 3
attez 59
atthi 2
atthy 112
attia 7
attib 1
attie 15
attim 42
attin 53
attir 6
attis 151
attit 6
attiv 42
attiz 6
attol 43
atton 32
attop 2
attor 40
attra 64
attre 7
attri 8
attro 60
attrv 1
attua 8
attug 1
attui 1
attur 24
attut 76
atuag 1
atuat 1
atuin 1
atuit 1
atura 72
ature 22
aturi 4
aturo 4
atuti 1
auber 3
audac 2
audem 1
audic 1
audis 1
audit 5
audiu 1
audon 1
auent 4
aufra 2
augur 10
augus 33
aumen 19
aunbu 1
aurac 2
aurar 1
aurat 2
auraz 1
auren 1
aurib 2
auric 1
auris 2
aurit 12
auror 1
auros 1
ausar 1
ausat 1
ausea 3
ausen 91
auspi 4
auste 1
austi 1
austo 3
austr 3
ausur 1
autel 7
auten 1
autho 1
autom 2
auton 6
autop 1
autor 100
autun 8
auzio 5
avabo 1
avagl 3
avagn 1
avalc 12
avald 2
avali 35
avall 71
avamb 2
avami 2
avamo 47
avamp 2
avand 2
avang 2
avano 113
avant 134
avanz 47
avarc 1
avard 1
avare 10
avari 1
avarm 1
avaro 2
avars 1
avata 10
avate 11
avati 3
avato 11
avatu 2
avava 1
avede 10
avedo 7
aveme 1
avemm 1
avend 10
avenn 9
avent 26
avera 9
averc 2
avere 82
averg 2
averi 14
averl 18
averm 7
avern 22
avero 1
avers 60
avert 1
averv 2
avess 53
avest 1
avete 57
aveva 195
avevi 12
avevo 43
aviat 1
avica 1
avico 1
avida 2
avide 20
avidi 9
avido 3
avier 2
aviez 1
aviga 6
avigl 14
avime 16
avion 1
aviss 5
avist 2
avita 1
avite 10
aviti 1
avito 1
avoce 3
avogl 1
avola 18
avole 3
avolf 1
avolg 8
avoli 18
avolo 84
avolt 9
avona 2
avone 1
avora 44
avore 26
avori 26
avoro 43
avosa 2
avoso 1
avrai 2
avran 11
avreb 97
avrei 39
avrem 30
avres 8
avret 8
avuta 1
avuti 2
avuto 38
avval 4
avvam 2
avvan 3
avved 1
avven 45
avver 148
avvez 3
avvia 5
avvic 57
avvie 3
avvil 1
avvin 7
avvio 1
avvis 19
avviv 16
avvoc 3
avvol 32
azaru 9
aziam 3
azian 1
aziar 5
aziat 5
azien 11
azioc 1
azion 591
azzaf 1
azzal 4
azzan 8
azzar 34
azzat 32
azzec 2
azzeg 1
azzer 2
azzes 1
azzet 1
azzia 13
azzic 1
azzim 1
azzin 25
azzit 14
azzod 2
azzof 1
azzol 4
azzon 5
azzot 3
azzur 9
azzut 1
babel 1
babil 33
bacca 2
bacch 3
bacco 3
bacia 19
bacin 2
bacio 16
backe 1
badar 2
badat 1
badav 1
bader 1
bades 9
badia 1
badig 5
badil 2
badir 1
baffi 16
baffo 4
bagag 12
bagas 3
baghd 1
bagli 32
bagna 6
bagni 4
bagno 3
baiar 3
balau 2
balbe 4
balca 1
balco 3
balda 2
baldo 3
baldr 1
balen 5
bales 3
balia 1
balis 1
balla 14
balle 2
balli 1
ballo 2
balor 2
balta 10
balte 2
balth 12
balti 2
balua 1
balug 1
balza 23
balze 2
balzi 3
balzo 4
bambe 4
bambi 67
banal 4
banca 16
banch 64
banco 11
banda 7
bande 2
bandi 26
bando 70
bante 3
banti 1
banza 2
bapti 1
barac 2
barat 3
baraz 14
barba 44
barbe 6
barbi 3
barbo 1
barca 56
barch 8
barci 1
barco 13
barda 1
barde 4
bardi 1
bardo 1
baril 12
bario 1
barlu 1
barna 1
barra 6
barre 1
barri 29
barro 1
barth 3
barto 8
barze 1
basat 1
basce 1
basci 6
basil 25
bassa 36
basse 11
bassi 36
basso 27
basta 122
baste 7
basti 33
basto 27
batac 2
baten 14
batta 57
batte 169
batti 164
batto 8
battu 40
baule 1
bavag 1
bavan 1
bavar 2
bavat 2
baver 1
bavie 2
bavos 1
bazar 1
bazia 2
bazzi 1
bbagl 1
bbaia 4
bbalz 9
bbana 1
bband 74
bbano 3
bbarb 3
bbass 17
bbast 24
bbatt 14
bbazi 1
bbedi 11
bbenb 30
bbene 26
bbero 129
bbiam 176
bbian 25
bbiat 7
bbiav 1
bbidi 10
bbiet 1
bbigl 2
bbios 9
bbisc 2
bblic 41
bblig 9
bbond 2
bbord 1
bborg 6
bbozz 2
bbrac 32
bbrai 23
bbrez 4
bbric 7
bbril 1
bbriv 3
bbrof 1
bbruc 1
bbuff 3
bbugl 6
bbuia 1
bdica 1
beato 1
beatr 36
becca 4
becci 1
becil 2
becke 1
bedie 4
bedir 4
bedit 3
bedue 1
beghi 1
belai 1
belan 1
belic 1
bella 30
belle 30
belli 22
bello 17
belva 1
bemus 2
benbr 30
bench 3
benda 1
bende 2
bened 43
benef 104
benes 3
benet 1
benev 4
benin 1
benis 6
bente 3
benve 10
benvo 1
beone 2
beral 3
beram 9
beran 1
berar 8
berat 7
beraz 1
berbe 1
berci 1
berco 3
berel 2
berer 3
berga 22
berge 2
bergh 3
bergo 3
beria 1
beric 1
berle 2
berna 24
bernd 9
berne 1
bernh 22
bersa 5
bersi 1
berti 6
berto 22
berts 1
berwa 22
besca 3
besch 2
beste 18
besti 16
betta 4
bette 1
betto 3
bevan 5
bevet 1
bevut 1
biadi 3
biagi 1
biale 3
biame 6
biamo 172
bianc 51
biand 3
biani 9
biano 20
biare 22
biarl 1
biars 1
biasc 3
biasi 2
biata 1
biate 4
biati 5
biato 5
biava 2
bibbi 31
bibli 9
bibra 10
bicat 3
bicch 33
bicon 2
bidie 4
bidir 4
bidit 1
bidiv 1
bient 4
biere 3
biett 7
biezi 4
bifol 6
bifor 3
bigam 1
bigli 6
bigot 1
bigua 1
bigue 1
bigui 4
biguo 3
bilan 2
bilas 1
bildo 3
bilen 1
bilia 1
bilic 1
bilio 2
bilir 1
bilis 7
bilit 49
billa 7
bilme 36
bilon 5
biluo 1
bimba 2
bimbi 1
bimbo 3
binag 1
binat 2
binde 16
bindo 22
binet 1
binga 2
binio 1
biond 19
biosa 1
biose 1
biosi 2
bioso 5
biqua 1
biqui 1
biquo 1
birci 3
birin 11
birra 48
birre 5
birri 26
birro 7
bisac 1
bisbi 4
bisbo 1
bisca 1
bisce 6
bisch 1
bisco 2
bisog 123
bissa 2
bisso 6
biste 1
bitam 1
bitan 18
bitar 3
bitat 4
bitaz 8
biter 1
bitia 2
bitin 1
bitor 1
bitra 1
bitri 1
bitro 1
bitua 17
bitud 9
bitue 1
biule 1
bivac 5
bivan 1
bizio 7
bizza 14
bland 4
blasf 4
blaso 2
blate 3
blatt 4
blema 14
blemi 6
blica 33
blich 6
blico 3
bliga 8
bligh 1
blime 2
bliot 8
bliqu 1
bliss 1
blocc 29
blung 1
blusa 2
bluse 1
bmaie 1
boato 6
bocca 80
bocch 7
bocci 1
bocco 10
bocho 1
bocke 43
boekb 16
boeme 3
boemi 3
boemo 1
boeri 1
bofon 1
bolen 3
bolez 3
bolgi 1
bolic 4
bolim 1
bolir 6
bolis 4
bolit 5
boliz 4
bolla 4
bolle 5
bolli 7
bolog 24
bolsf 1
bolsi 1
bomba 4
bombe 1
bombo 1
bomin 1
bonar 2
bonat 1
bonav 2
bonda 5
bondi 6
bondo 9
boniz 1
bonta 1
boran 1
borar 1
borat 1
borbo 3
borda 6
borde 28
bordi 4
bordo 17
borga 1
borgh 23
borgo 66
boria 1
borio 1
borni 2
borra 2
borre 1
borrh 5
borsa 43
borse 6
bosca 13
bosch 4
bosco 10
botag 2
botan 1
botol 5
botta 12
botte 47
botti 26
botto 2
bozze 1
bozzo 3
braba 1
braca 1
bracc 159
brace 8
brach 7
braci 2
bragh 4
braic 2
braio 42
brais 1
brait 6
brama 6
brame 1
bramo 1
branc 1
brand 24
brano 23
brare 8
brarg 1
brate 1
brati 1
brato 1
bratt 4
brava 27
bravi 2
bravo 15
brecc 2
brech 3
brent 1
brere 2
breri 7
brest 1
brett 2
bretz 1
breve 15
brevi 2
brezz 8
briac 25
brian 3
briat 1
brica 8
bricc 2
brici 11
brieg 9
brifi 2
briga 15
brigh 1
brili 1
brill 13
brind 10
brist 1
brivi 26
brocc 7
brock 30
brodo 1
brofe 1
brogl 4
broni 1
bronz 10
brosi 2
brott 2
bruce 1
bruci 45
brueg 2
bruli 4
brund 6
brunf 1
bruno 1
brusc 2
brusi 10
brust 1
bruta 3
brutt 16
bruxe 1
bruzz 1
bside 2
bucan 2
bucar 1
bucat 2
bucci 1
bucer 11
buche 2
buchi 1
budel 2
buend 4
bufer 3
buffa 11
buffo 10
bugia 4
bugie 2
bugio 11
bugli 7
bugni 1
buiat 1
buire 5
buirl 5
buisc 7
buita 2
buite 2
buito 5
buiva 1
bulan 1
bular 1
bulbi 1
bulge 2
bulia 1
bulin 3
bulos 2
bunal 13
buona 50
buonc 3
buone 14
buoni 18
buono 12
buont 1
burat 6
burck 1
burel 2
burgh 3
burgo 56
burra 5
burro 3
bussa 4
busse 9
busso 2
busta 1
buste 1
busti 2
busto 19
buten 1
butor 2
butta 23
butte 2
butti 4
butto 1
buyss 3
buzio 3
buzza 1
cabar 1
cabil 19
cabin 5
cabot 2
cabra 2
cabre 1
cabri 1
cabro 1
cacar 1
cacat 2
cacce 4
cacci 62
cacco 4
cacem 1
cacia 1
cacio 1
cadav 22
cadde 2
cadem 2
caden 9
cader 26
cades 1
cadet 1
cadev 1
cadia 1
cadim 5
cadon 9
cadra 4
cadre 3
cadut 21
caffa 2
caffe 1
cafor 3
cagan 1
cagar 5
cagas 1
cagat 6
caghe 1
caghi 2
cagio 1
cagli 15
cagna 7
cagne 1
cagno 1
caiol 5
calam 5
calan 2
calar 3
calat 2
calca 15
calce 2
calch 3
calci 19
calco 18
calda 18
calde 5
caldi 2
caldo 12
calet 1
calfi 1
calib 4
calic 1
calin 6
calis 28
calit 3
caliz 1
calle 8
calli 9
callo 2
calma 15
calmi 1
calmo 5
calor 10
calot 1
calpe 7
calpi 5
calpo 2
caltr 18
calvi 38
calvo 1
calza 17
calze 1
calzi 4
calzo 8
cambi 98
cambu 1
camen 20
camer 12
camic 7
camil 2
camin 18
cammi 46
campa 97
campe 18
campi 23
campo 49
camuf 1
canaa 1
canag 1
canal 43
canap 1
cance 25
cancr 2
canda 21
cande 19
candi 10
cando 72
canea 1
canes 1
cange 2
canic 4
canie 1
canir 1
canis 8
canit 2
canna 14
canne 13
canno 40
canon 6
canov 1
canta 13
cante 51
canti 122
canto 41
canus 2
canut 1
canza 4
canzi 3
canzo 9
caoti 1
capac 34
capan 15
capar 2
capel 45
capez 3
capie 3
capif 1
capig 1
capii 2
capim 3
capir 65
capis 34
capit 293
capiv 1
capod 2
capof 4
capol 6
capop 1
capor 1
capov 2
cappa 29
cappe 15
cappi 1
cappu 15
capre 1
capri 1
capro 1
capta 1
carab 1
carac 8
caraf 172
carat 29
carav 2
carbo 3
carca 8
carce 18
carci 7
carda 2
cardi 86
carel 3
cares 3
carez 11
cargl 4
caria 2
caric 92
cario 4
caris 4
carit 7
carla 3
carle 2
carli 1
carlo 86
carmi 10
carna 4
carne 47
carni 5
carno 2
carog 3
carol 1
caron 6
carot 1
carpe 7
carpi 1
carpo 2
carre 7
carri 24
carro 31
carsa 2
carse 1
carsi 10
carta 26
carte 5
carti 3
carto 2
carvi 5
casac 3
casat 4
casca 3
casch 1
casci 17
caseg 2
casin 4
casio 24
casmo 1
casol 1
casot 1
cassa 22
casse 31
cassi 4
casso 1
casta 1
caste 22
casti 10
casto 2
castr 21
casua 4
casup 1
catac 3
catai 3
catal 1
catam 1
catap 1
catar 1
catas 11
catec 1
categ 2
caten 37
cater 2
catev 1
cathe 1
catin 5
catis 2
cativ 1
catoc 1
catol 9
catom 2
cator 79
catri 18
catta 16
catte 30
catti 11
catto 65
cattu 19
catur 4
causa 40
cause 1
caust 2
caute 7
cauti 5
cauto 2
cauzi 5
caval 116
cavam 1
cavan 12
cavar 5
cavat 15
cavav 1
caver 5
cavig 1
cavol 3
cazio 77
cazza 10
cazze 1
cazzi 2
cazzo 72
cazzu 1
ccabi 6
ccada 4
ccade 21
ccadi 5
ccadr 6
ccadu 6
ccafo 3
ccaga 1
ccagn 1
ccalc 8
ccald 1
ccale 3
ccali 6
ccame 3
ccamp 11
ccana 1
ccand 10
ccani 15
ccano 9
ccant 24
ccape 1
ccapi 1
ccapo 2
ccarc 7
ccare 42
ccarg 2
ccari 2
ccarl 4
ccarm 3
ccaro 3
ccars 4
ccarv 2
ccasc 13
ccasi 24
ccast 1
ccata 12
ccate 3
ccati 17
ccato 53
ccatt 9
ccatu 4
ccava 8
ccazz 9
cceca 2
ccede 36
ccedi 1
ccedo 1
ccele 6
ccell 22
ccend 32
ccenn 14
ccent 15
ccepi 1
ccera 1
ccerc 3
ccere 2
ccesa 1
ccese 3
cceso 5
ccess 62
ccett 47
ccezi 6
cchec 5
ccheg 15
ccher 13
cchet 6
cchez 11
cchia 172
cchic 1
cchie 95
cchin 17
cchio 258
cchir 1
cchis 1
cchit 5
cchiu 11
cchiv 1
cciab 1
cciac 2
cciag 2
cciai 6
cciam 19
ccian 23
cciar 34
ccias 2
cciat 85
cciav 2
ccica 7
ccich 1
ccida 2
ccide 24
ccidi 1
ccigl 12
ccing 19
ccino 2
ccint 1
cciol 15
ccion 21
ccios 3
cciot 1
ccise 1
ccisi 4
cciso 11
ccita 12
cciug 1
cclam 4
ccles 16
ccocc 3
ccoci 3
ccogl 89
ccola 40
ccole 19
ccolg 12
ccoli 48
ccolo 77
ccols 8
ccolt 42
ccoma 23
ccomb 2
ccome 7
ccomi 6
ccomo 10
ccomp 41
ccomu 4
cconc 5
ccond 5
ccone 4
cconi 4
ccont 83
ccorc 2
ccord 51
ccorg 23
ccorr 41
ccors 11
ccort 9
ccost 13
ccoti 1
ccova 2
ccred 1
ccucc 5
ccuin 5
ccult 3
ccumu 10
ccupa 44
ccupe 5
ccupo 1
ccura 1
ccusa 33
ccuse 3
ceano 5
cecan 3
cecat 1
cedan 1
ceden 28
ceder 51
cedes 2
cedet 2
cedev 5
cedia 3
cedim 1
cedon 4
cedut 8
cefis 4
cegli 32
celan 1
celar 1
celat 6
celeb 5
celer 6
celes 5
celgo 4
celia 1
celib 1
cella 60
celle 12
celli 11
cello 20
celse 3
celsi 1
celso 1
celta 20
celte 5
celti 14
celto 25
cembr 13
cemen 11
cemmo 2
cempi 2
cenan 1
cenar 47
cenat 4
cenci 4
cenda 21
cende 78
cendi 29
cendo 74
cener 10
cenic 1
cenna 7
cenni 17
cenno 39
censi 2
censo 7
censu 1
cente 25
centi 34
cento 45
centr 55
centu 1
cenza 40
cenze 7
cepib 1
cepir 1
cepis 5
cepit 1
cepiv 2
cepol 6
ceppa 1
ceppi 1
ceppo 4
cerai 3
ceral 1
ceram 3
ceran 11
cerar 6
cerat 7
ceraz 5
cerbe 1
cerca 164
cerce 1
cerch 35
cerci 1
cerco 26
cerdo 1
cereb 8
cerei 3
cerem 4
ceret 3
cergl 2
ceria 2
cerie 7
cerit 5
cerla 3
cerle 1
cerli 4
cerlo 3
cermi 6
cerna 1
cerni 1
cerri 4
cersi 1
certa 36
certe 28
certi 19
certo 111
cerve 6
cervi 5
cervo 1
cesar 7
cesca 12
cesco 16
ceser 1
cesim 3
cespu 1
cessa 63
cesse 21
cessi 52
cesso 59
cesta 4
ceste 1
cesti 1
cesto 5
cestr 1
cesur 1
cetta 31
cette 10
cetti 9
cetto 12
cettr 2
cevan 9
ceven 2
cever 14
cevet 1
cevia 4
cevol 7
cevut 19
cezio 8
chach 1
chael 1
chali 12
chart 1
checc 8
chegg 28
cheim 1
chela 1
chele 11
chene 8
chera 17
chere 18
cheri 2
chern 4
chero 5
cherz 13
chest 1
chett 24
chevo 1
chezz 31
chiac 39
chiaf 4
chiai 10
chiam 131
chian 18
chiap 3
chiar 102
chias 7
chiat 83
chiav 29
chibu 33
chica 1
chicc 3
chied 114
chieg 1
chiel 2
chien 37
chier 142
chies 193
chiet 4
chifa 1
chifo 9
chigi 2
chigl 2
chile 1
chili 2
chimi 5
china 19
chine 2
ching 3
chini 5
chino 27
chioc 7
chiod 10
chiol 8
chiom 2
chiop 1
chior 17
chios 18
chira 1
chirm 1
chiro 1
chisc 2
chiss 21
chist 1
chite 7
chiti 2
chito 2
chitr 3
chiuc 1
chiud 45
chium 6
chiun 24
chius 34
chiva 1
chivi 3
chizz 6
chmid 2
chnei 1
chnue 2
chola 1
cholt 1
chres 1
chris 7
chser 5
chste 10
chtin 13
chulz 1
chute 7
chwar 1
ciaba 2
ciabi 3
ciabo 4
ciaca 3
ciacc 2
ciacq 4
ciagi 2
ciago 7
ciagu 5
ciaio 4
cialb 1
ciale 17
ciali 18
ciall 1
cialm 8
cialo 1
cialt 4
ciama 1
ciame 1
ciami 4
ciamm 5
ciamo 56
ciamp 5
ciand 53
cianf 1
ciano 51
ciant 24
cianu 1
ciapa 2
ciape 2
ciarc 6
ciare 126
ciarg 3
ciarl 21
ciarm 4
ciaro 8
ciarp 1
ciars 6
ciarv 3
ciasc 18
ciass 6
ciast 2
ciata 49
ciate 38
ciati 31
ciato 159
ciatu 7
ciava 18
ciavo 4
cibil 8
cican 2
cicar 2
cicat 23
cicci 3
cichi 1
ciclo 5
cicog 1
cicol 1
cicut 1
cidan 2
cidat 1
cidem 4
ciden 10
cider 39
cidev 2
cidia 2
cidil 1
cidio 3
cidit 3
cidon 7
cieca 14
ciech 1
cieco 1
cieli 5
cielo 53
cient 28
cienz 13
ciere 2
cieri 3
cifer 5
cific 9
cifig 2
cifis 5
cifra 8
cigli 23
cigno 2
cigol 5
cilia 17
cilie 1
cilio 66
cilit 7
cilla 7
cille 2
cilli 1
cilme 16
cimel 3
cimen 10
cimil 11
cimit 13
cimmo 4
cimol 1
cinab 1
cinai 1
cinal 1
cinam 5
cinan 23
cinar 19
cinat 23
cinav 6
cinaz 3
cindi 1
cines 1
cinge 10
cingh 6
cingo 17
cinin 1
cinio 1
cinis 2
cinqu 82
cinta 7
cinti 11
cinto 7
cintu 20
cinzi 1
ciocc 6
ciogl 13
ciola 3
ciole 4
ciolg 5
cioli 13
ciolo 6
ciols 1
ciolt 12
ciona 1
ciond 1
cione 7
cioni 8
ciono 15
ciore 4
ciosa 2
ciose 1
ciosi 4
cioso 5
cioto 2
ciott 4
cipal 35
cipan 1
cipar 5
cipat 16
cipaz 3
cipes 10
cipii 1
cipio 31
cipit 18
cipiz 1
cipli 2
cipol 3
cippa 1
cipri 1
cipro 7
cirai 2
ciran 1
circa 10
circi 2
circo 70
circu 6
cireb 2
cirei 1
cirem 5
cirlo 1
cirne 1
ciron 1
cirvi 1
cisam 7
cisca 1
cisce 2
cisco 6
ciser 1
cisio 24
cisiv 6
cisma 4
cismo 1
cisor 1
cisse 5
cissi 9
ciste 4
cisto 1
citam 6
citan 9
citar 12
citat 16
citav 1
citaz 5
citer 1
citor 7
citta 49
citur 1
ciuff 3
ciuga 6
ciugh 1
ciugo 2
ciull 8
ciume 1
ciupa 1
ciuta 11
ciute 4
ciuti 15
ciuto 63
ciutt 5
civan 1
cives 10
civet 1
civic 4
civil 9
civol 43
cizia 12
cizie 2
cizio 1
cizza 1
ckels 42
ckere 1
cking 1
claes 1
clama 19
clame 1
clami 1
clamo 4
cland 11
clang 3
clara 1
class 4
clast 2
claud 1